15

C      1.757376   -0.295454    0.090327
C      0.586611    0.612795    0.467803
C     -0.690230    0.317985   -0.348898
C     -1.291223   -1.041850    0.017959
O     -1.656788    1.308686   -0.086391
O     -1.363735    2.338813   -0.858880
H      1.557483   -1.343426    0.394969
H      1.943826   -0.255591   -1.003894
H      2.673537    0.046301    0.616567
H      0.899514    1.663377    0.283529
H      0.377036    0.513470    1.555296
H     -0.441855    0.287223   -1.437553
H     -2.255693   -1.179892   -0.515613
H     -0.615494   -1.867838   -0.286240
H     -1.480365   -1.104598    1.111019
13

C     -1.695537    0.189392   -0.098876
C     -0.313073   -0.307609   -0.520342
C      0.790546    0.741943   -0.469693
C      0.725608   -0.350624    0.589091
O      1.666303   -1.369507    0.401026
O      2.702013   -1.021764    1.137704
H     -2.303014   -0.673869    0.243324
H     -2.197744    0.653697   -0.972803
H     -1.645863    0.936781    0.722683
H     -0.213399   -1.064262   -1.328180
H      0.496405    1.745407   -0.094635
H      1.590735    0.604056   -1.227865
H      0.397018   -0.083642    1.618565
18

C      1.941112    0.632093    0.475012
C      1.083549   -0.492770   -0.105142
C     -0.328447   -0.029077   -0.537414
C     -1.018455   -1.155061   -1.321192
C     -1.206317    0.387712    0.661154
O     -0.810726    1.648184    1.135337
O     -1.582845    1.902191    2.174435
H      1.931673    1.517598   -0.195386
H      2.989265    0.280250    0.578938
H      1.579727    0.920439    1.483416
H      1.619870   -0.894737   -0.992899
H      1.007412   -1.315820    0.638905
H     -0.229174    0.838822   -1.227367
H     -0.409193   -1.440316   -2.205402
H     -2.010935   -0.817957   -1.689626
H     -1.158903   -2.050258   -0.677604
H     -1.126708   -0.377040    1.468004
H     -2.270906    0.445746    0.336830
16

C      2.213751   -0.962459    0.354180
C      1.272907   -0.300075   -0.325743
C     -0.042134    0.094439    0.302863
C     -0.183522    1.620468    0.278124
C     -1.197789   -0.584163   -0.446500
O     -2.412555   -0.315533    0.204216
O     -3.343456   -0.925172   -0.504322
H      2.066294   -1.242656    1.392594
H      3.146150   -1.229923   -0.132241
H      1.460284   -0.039953   -1.364120
H     -0.074495   -0.237051    1.365589
H     -0.191104    1.999076   -0.766961
H     -1.125767    1.929576    0.778348
H      0.663894    2.089759    0.822624
H     -1.019748   -1.684397   -0.461737
H     -1.232712   -0.211937   -1.496915
14

C      2.181122   -1.610612   -0.220044
C      1.146868   -0.997584   -0.311994
C     -0.115304   -0.249527   -0.425155
C     -1.172440   -0.881024    0.486569
C      0.119559    1.226427   -0.075654
O     -1.053398    1.963010   -0.305303
O     -0.768655    3.207362    0.027578
H      3.088828   -2.148573   -0.139179
H     -0.463457   -0.319598   -1.478667
H     -0.858897   -0.824779    1.551693
H     -2.144280   -0.355967    0.370978
H     -1.325503   -1.947594    0.213934
H      0.939384    1.624987   -0.717574
H      0.426172    1.313471    0.992950
16

C      1.739710    0.477320   -0.060860
C      0.266572    0.403096   -0.470966
C     -0.171225   -0.987202   -0.927539
C     -1.126221   -1.076102    0.256556
C     -0.690825    0.310379    0.720764
O     -1.746771    1.231446    0.625302
O     -1.270436    2.370635    1.089063
H      2.381962    0.371151   -0.960240
H      1.997573   -0.326353    0.662603
H      1.944979    1.462318    0.408501
H     -0.013236    1.195266   -1.201308
H      0.631138   -1.756841   -0.883068
H     -0.708300   -0.961883   -1.900886
H     -0.835069   -1.873660    0.974709
H     -2.191871   -1.124921   -0.059304
H     -0.207981    0.285351    1.726673
16

C      1.697671    0.683882   -0.173337
C      0.666083   -0.309610    0.377005
C      0.003401   -1.159611   -0.706074
C     -1.354361   -0.572070   -0.340715
C     -0.701100    0.281263    0.745192
O     -0.802241    1.657300    0.472375
O     -2.002343    2.017970    0.884103
H      1.286471    1.266215   -1.026047
H      2.594796    0.130333   -0.521776
H      2.005073    1.385445    0.630376
H      1.083957   -0.933464    1.198343
H      0.065125   -2.247929   -0.486320
H      0.309925   -0.898830   -1.743406
H     -2.047585   -1.333031    0.079459
H     -1.792786    0.026658   -1.169494
H     -1.012086    0.005479    1.780314
16

C     -1.897200    0.616369   -0.024129
C     -0.740909   -0.326192    0.321706
C      0.070760   -0.772473   -0.893377
C      1.297266   -0.058259   -0.334166
O      2.309156   -0.971292    0.005621
O      3.325960   -0.240834    0.420681
C      0.486941    0.389842    0.881051
H     -1.552145    1.461367   -0.658702
H     -2.683796    0.054674   -0.570383
H     -2.335984    1.024686    0.910419
H     -1.060180   -1.181977    0.957247
H     -0.271366   -0.329289   -1.854939
H      0.188111   -1.877910   -0.937149
H      1.639540    0.777707   -0.988419
H      0.838963   -0.062980    1.834202
H      0.384884    1.496562    0.930335
16

C     -1.584624    1.013737   -0.358255
C     -0.868920   -0.185141    0.270723
C     -0.031940   -0.988562   -0.723444
C      1.233746   -0.613104    0.040894
O      2.072996    0.204309   -0.734093
O      3.147085    0.414923    0.001913
C      0.398532    0.191423    1.035584
H     -0.880343    1.638259   -0.949684
H     -2.394555    0.654085   -1.027051
H     -2.034990    1.638964    0.441056
H     -1.552521   -0.827573    0.869191
H     -0.053383   -0.590590   -1.762895
H     -0.247410   -2.078008   -0.667182
H      1.745150   -1.499859    0.483803
H      0.421551   -0.253120    2.054378
H      0.629627    1.280257    1.025062
16

C     -1.678595    0.120647   -0.755986
C     -1.047868    0.353190    0.622168
C     -0.307015   -0.837989    1.224017
C      0.478532    0.374527    0.731919
C      1.309216    0.161942   -0.541487
O      2.654494    0.000598   -0.180050
O      3.320815   -0.120105   -1.312343
H     -2.777948    0.031180   -0.634879
H     -1.317284   -0.803935   -1.252058
H     -1.469394    0.992615   -1.409952
H     -1.574145    1.003372    1.353181
H     -0.246046   -1.748955    0.590914
H     -0.384350   -0.904426    2.329648
H      0.873235    1.039159    1.530252
H      1.195754    1.067098   -1.179433
H      0.970599   -0.728918   -1.115910
16

C      1.427485    0.148695   -0.958689
C      0.806571    0.171176    0.442007
C     -0.503376   -0.591108    0.672910
C     -1.115404   -1.352466   -0.508338
C     -0.513191    0.930120    0.553993
O     -0.693009    1.555599    1.792556
O     -0.244367    2.783223    1.625609
H      1.800673   -0.872552   -1.181158
H      0.717922    0.460852   -1.753193
H      2.288574    0.848230   -0.979264
H      1.475165    0.226204    1.328000
H     -0.621354   -1.003841    1.698060
H     -0.477482   -2.226822   -0.753878
H     -2.118812   -1.723090   -0.213378
H     -1.238605   -0.724170   -1.414888
H     -0.990791    1.369950   -0.350350
16

C     -2.189538    0.037806   -0.244047
C     -0.704977    0.376482   -0.378595
C     -0.065003    0.963683    0.877523
C      0.235693   -0.476072    0.468178
C      1.640734   -0.742714   -0.099607
O      2.100072    0.306228   -0.915008
O      3.300393   -0.055642   -1.325301
H     -2.454869   -0.734561   -0.995330
H     -2.448949   -0.345989    0.766512
H     -2.790580    0.949179   -0.443367
H     -0.322033    0.781603   -1.339140
H      0.733450    1.708560    0.676453
H     -0.732941    1.053984    1.760858
H     -0.231173   -1.247016    1.118710
H      1.595817   -1.687054   -0.686748
H      2.333906   -0.888476    0.758911
16

C      2.098475   -0.332767   -0.091621
C      0.666117   -0.296822    0.439943
C     -0.036227    1.050498    0.302233
O     -0.929118    1.292249    1.354054
O     -1.712125    2.260866    0.924101
C     -0.411284   -0.107139   -0.625954
C     -1.738153   -0.817871   -0.344740
H      2.354541   -1.374407   -0.375901
H      2.792048   -0.001499    0.708814
H      2.238963    0.323120   -0.978226
H      0.397721   -0.899336    1.335060
H      0.570684    1.892037   -0.100843
H     -0.070145    0.011265   -1.676834
H     -1.733858   -1.803891   -0.853662
H     -2.571542   -0.211035   -0.755621
H     -1.916095   -0.985267    0.739198
18

C      2.533985   -0.036296    0.250396
C      1.077970    0.326722    0.528941
C      0.121691   -0.547860   -0.296514
C     -1.362678   -0.311873    0.059533
C     -1.838281    1.071827   -0.392722
O     -2.160600   -1.279362   -0.582529
O     -2.125961   -2.362026    0.172755
H      2.729365   -1.093408    0.530383
H      3.201607    0.617935    0.849830
H      2.768122    0.107748   -0.825976
H      0.931640    1.397698    0.275329
H      0.875510    0.187793    1.613187
H      0.366449   -1.615069   -0.101406
H      0.283295   -0.361149   -1.381224
H     -1.496397   -0.361715    1.167426
H     -1.642268    1.219058   -1.476396
H     -1.332633    1.872938    0.184884
H     -2.930815    1.167039   -0.215885
16

C      2.612331   -0.156263   -0.605721
C      1.582357    0.107085    0.203577
C      0.157005   -0.156375   -0.220875
C     -0.816582    0.488679    0.778527
C     -2.269718    0.341959    0.329910
O     -0.073249   -1.547550   -0.253330
O      0.146042   -1.944685   -1.493200
H      2.456331   -0.570485   -1.596762
H      3.626035    0.050944   -0.278484
H      1.787789    0.539384    1.179669
H     -0.016523    0.327404   -1.213940
H     -0.587484    1.573106    0.874716
H     -0.697796    0.018750    1.779830
H     -2.552220   -0.730369    0.268859
H     -2.417648    0.817780   -0.662890
H     -2.936670    0.840636    1.064400
16

C      1.493603    1.749316    0.156905
C      1.505340    0.416305    0.065847
C      0.504898   -0.329990   -0.777143
C     -0.919835   -0.280173   -0.185172
C     -0.986245   -1.014514    1.156923
O     -1.823341   -0.898582   -1.071082
O     -2.122782   -0.001996   -1.993104
H      0.751036    2.339330   -0.371616
H      2.235986    2.258523    0.762689
H      2.273795   -0.143540    0.590643
H      0.505015    0.105663   -1.799972
H      0.829321   -1.389270   -0.870829
H     -1.216500    0.779843    0.002814
H     -0.329378   -0.523420    1.905770
H     -2.027158   -0.993394    1.544029
H     -0.673757   -2.074101    1.037585
14

C      2.286233   -0.725292   -1.146700
C      1.500636   -0.108823   -0.471008
C      0.543163    0.642086    0.353495
C     -0.900565    0.353722   -0.101145
C     -1.326042   -1.087030    0.186014
O      0.826839    2.012873    0.211956
O      0.334088    2.612686    1.280133
H      2.975424   -1.266610   -1.739870
H      0.684535    0.311674    1.409984
H     -1.596582    1.031102    0.439419
H     -1.007280    0.561004   -1.188966
H     -2.385226   -1.227617   -0.116195
H     -1.235189   -1.307497    1.270887
H     -0.700034   -1.802277   -0.388005
14

C      2.633138    0.364736    0.301254
C      1.600887   -0.257765    0.284521
C      0.341889   -1.017156    0.263995
C     -0.892139   -0.096252    0.177301
C     -0.954924    0.629558   -1.169478
O     -0.879451    0.860092    1.212387
O     -1.285366    0.238949    2.304480
H      3.539017    0.911581    0.315817
H      0.355674   -1.716660   -0.598982
H      0.284391   -1.627274    1.190094
H     -1.808872   -0.730344    0.239920
H     -0.965085   -0.103808   -2.003939
H     -1.884302    1.235327   -1.224587
H     -0.084856    1.309016   -1.292784
16

C     -1.903886    0.158763   -0.081836
C     -0.538954    0.170215    0.611547
O     -0.635750   -0.451354    1.870952
O     -1.135546    0.447156    2.699509
C      0.467874   -0.620924   -0.237948
C      1.927522   -0.249598   -0.021401
C      1.216033    0.176551   -1.296635
H     -2.279531   -0.882215   -0.182702
H     -2.637389    0.747158    0.508800
H     -1.824724    0.615083   -1.091776
H     -0.201925    1.230802    0.716314
H      0.284876   -1.691138   -0.475749
H      2.123994    0.584860    0.685542
H      2.642475   -1.087077   -0.165100
H      1.507305   -0.410992   -2.192740
H      0.987625    1.262709   -1.346778
16

C      1.923859    0.263533    0.719648
C      1.095911   -0.268068   -0.444122
C     -0.280171    0.406696   -0.472820
C     -1.364701   -0.372144   -1.207066
C     -1.366684   -0.311632    0.313538
O     -2.359653    0.539919    0.809260
O     -1.979787    0.829747    2.037139
H      2.060665    1.362034    0.625522
H      2.922940   -0.221005    0.718139
H      1.419685    0.038188    1.683686
H      1.012845   -1.373943   -0.352336
H      1.622108   -0.041526   -1.395767
H     -0.363802    1.512962   -0.543720
H     -1.059119   -1.356891   -1.621093
H     -2.128086    0.265687   -1.701937
H     -1.156007   -1.273556    0.831930
16

C      2.104456   -0.328653   -0.383772
C      0.792780   -0.522098    0.367496
C     -0.397771   -0.155178   -0.532483
C     -0.900390    1.278101   -0.404536
C     -1.726882    0.131421    0.160922
O     -1.702345    0.103327    1.560968
O     -2.131196   -1.099122    1.886688
H      2.954743   -0.611636    0.271922
H      2.127134   -0.968460   -1.291760
H      2.222345    0.735158   -0.681521
H      0.821800    0.088548    1.296462
H      0.699602   -1.589386    0.660872
H     -0.492092   -0.610508   -1.541571
H     -1.301386    1.701938   -1.349221
H     -0.388598    1.908914    0.354279
H     -2.682199   -0.062367   -0.374747
14

C      1.980469    1.115686   -0.390921
C      1.381597    0.176682    0.344015
C      0.222844   -0.605454   -0.202927
C     -0.831194   -0.984003    0.830178
C     -1.103819    0.136728   -0.161002
O     -1.957991   -0.234567   -1.205516
O     -3.162476    0.123311   -0.808724
H      2.828933    1.660513    0.010007
H      1.629505    1.347655   -1.392095
H      1.763450   -0.049250    1.335412
H      0.367701   -1.316642   -1.044496
H     -1.365945   -1.933389    0.613831
H     -0.653505   -0.625492    1.866830
H     -1.099570    1.188222    0.205408
12

C      2.533800   -0.376406    0.684083
C      1.509680   -0.210678    0.069936
C      0.263749   -0.008221   -0.679008
C     -0.846408   -0.985808   -0.319966
C     -0.899237    0.447239    0.186242
O     -1.847128    1.214515   -0.499335
O     -1.506491    2.466030   -0.267845
H      3.432617   -0.521950    1.223399
H      0.285727    0.355909   -1.728157
H     -0.600647   -1.733638    0.465171
H     -1.540727   -1.213134   -1.157067
H     -0.784935    0.566140    1.287323
14

O     -2.927339    0.157205    0.647733
O     -1.981259    0.789732   -0.020724
C     -0.763361    0.404497    0.565852
C      0.316426    1.314966    0.102343
C      1.298304    0.670156   -0.502059
C      1.060817   -0.794158   -0.563314
C     -0.317694   -0.985280    0.076675
H     -0.808430    0.447590    1.679552
H      0.315211    2.389094    0.257829
H      2.182825    1.160387   -0.895420
H      1.063524   -1.137562   -1.620051
H      1.845755   -1.327952    0.014285
H     -1.029825   -1.394618   -0.673839
H     -0.254954   -1.694058    0.931136
21

C     -1.740285    1.227932   -0.240323
C     -1.306040   -0.056929    0.478906
C     -1.660870   -1.296163   -0.352976
C      0.180661   -0.022904    0.915995
C      1.213191    0.050193   -0.231283
C      2.602331    0.363710    0.337480
O      1.256802   -1.186702   -0.903983
O      1.724772   -0.943620   -2.114522
H     -1.437848    2.121290    0.346385
H     -1.296425    1.292178   -1.255612
H     -2.846057    1.243564   -0.346654
H     -1.904488   -0.117938    1.415413
H     -1.233479   -1.228638   -1.375209
H     -2.764507   -1.381759   -0.447430
H     -1.284422   -2.216123    0.142801
H      0.314808    0.857727    1.583052
H      0.393015   -0.921617    1.536777
H      0.930176    0.881050   -0.917606
H      2.920225   -0.431362    1.045671
H      2.592137    1.339941    0.867749
H      3.346304    0.426168   -0.484632
21

C      2.551002    0.385535    0.797955
C      1.022867    0.377502    0.776620
C      0.475345   -0.362236   -0.462952
O      0.858589   -1.718036   -0.384526
O      0.890806   -2.177920   -1.621972
C     -1.072273   -0.259489   -0.606796
C     -1.539674    1.172020   -0.910159
C     -1.827342   -0.828465    0.604406
H      2.946174   -0.651176    0.847625
H      2.906765    0.940513    1.691584
H      2.947923    0.886715   -0.110458
H      0.662930   -0.112651    1.706308
H      0.679200    1.432385    0.781586
H      0.938456    0.120820   -1.358323
H     -1.361394   -0.875521   -1.487217
H     -1.422172    1.832593   -0.026203
H     -0.964264    1.596083   -1.760287
H     -2.614063    1.164850   -1.193079
H     -1.686921   -0.188411    1.500714
H     -2.914564   -0.878130    0.381364
H     -1.477389   -1.856981    0.833811
21

C      2.562311   -0.071879   -0.185642
C      1.638563   -0.168109    1.028022
C      0.297958    0.562607    0.826561
C     -0.577765    0.021361   -0.331309
C     -0.967421   -1.450679   -0.111787
C     -1.838753    0.892712   -0.477707
O     -2.552773    0.516240   -1.626844
O     -3.616727    1.295413   -1.661873
H      2.168863   -0.679663   -1.026560
H      2.672354    0.985061   -0.508929
H      3.565249   -0.466062    0.082127
H      2.156629    0.298560    1.893821
H      1.471800   -1.233380    1.291005
H      0.515612    1.639004    0.648602
H     -0.276536    0.501747    1.777173
H     -0.009942    0.098993   -1.283498
H     -1.454236   -1.584384    0.877995
H     -1.668748   -1.791898   -0.902215
H     -0.073155   -2.104404   -0.169915
H     -2.477414    0.777459    0.428721
H     -1.535871    1.961301   -0.567748
19

C      2.610506   -0.665352   -1.073720
C      1.813414   -0.887259   -0.024535
C      0.764150    0.106789    0.399204
C     -0.411471    0.183518   -0.601076
C     -1.192307   -1.139576   -0.657253
C     -1.348825    1.353877   -0.254367
O     -1.908736    1.176046    1.021664
O     -2.687043    2.221974    1.222506
H      2.519751    0.242071   -1.662939
H      3.365561   -1.395620   -1.345737
H      1.943917   -1.795381    0.556569
H      1.242533    1.105614    0.502709
H      0.383003   -0.184021    1.402332
H     -0.003805    0.382326   -1.617160
H     -0.535218   -1.961780   -1.011164
H     -1.589630   -1.407016    0.345201
H     -2.041504   -1.054162   -1.368342
H     -2.155183    1.413133   -1.021124
H     -0.769113    2.304817   -0.288597
17

C      3.035994    0.509406   -0.674447
C      2.109109   -0.129493   -0.243128
C      0.979402   -0.908393    0.282891
C     -0.372773   -0.240095   -0.041542
C     -1.521435   -1.208147    0.278926
C     -0.547667    1.080661    0.734224
O     -1.734834    1.716029    0.335909
O     -1.815190    2.816690    1.058738
H      3.849342    1.070633   -1.053078
H      1.099504   -1.026492    1.381374
H      1.023512   -1.917781   -0.179569
H     -0.409685   -0.019537   -1.132583
H     -1.407686   -2.146145   -0.305449
H     -1.531384   -1.459880    1.361359
H     -2.498782   -0.756705    0.006079
H     -0.572808    0.867851    1.828101
H      0.315379    1.751397    0.521869
19

C     -1.878384   -0.561052   -0.906048
C     -0.929108   -0.789392    0.015950
C     -1.267279   -1.626624    1.221185
C      0.473006   -0.226091   -0.158730
C      0.451170    1.305305   -0.014106
C      1.859509    1.897415   -0.032332
O      0.983523   -0.571889   -1.425949
O      1.333461   -1.843117   -1.354629
H     -1.666941    0.028894   -1.792538
H     -2.878969   -0.966031   -0.786018
H     -1.579271   -2.642107    0.897363
H     -2.098585   -1.153182    1.785321
H     -0.398682   -1.728820    1.904295
H      1.141363   -0.619989    0.643729
H     -0.138796    1.759963   -0.839540
H     -0.033066    1.579663    0.949027
H      2.361192    1.678289   -0.998628
H      1.800153    2.999209    0.092216
H      2.465704    1.479556    0.799433
19

C      1.624579    1.377478   -0.614965
C      1.313743    0.239089    0.022731
C      2.253043   -0.934230   -0.060767
C      0.038908    0.144513    0.832638
C     -1.197403    0.036962   -0.075122
C     -2.473003    0.002060    0.773864
O     -1.103693   -1.140475   -0.843766
O     -1.867614   -0.960396   -1.905465
H      0.969964    2.242298   -0.562663
H      2.539425    1.458226   -1.194683
H      3.239244   -0.657767    0.368510
H      1.858739   -1.809278    0.496800
H      2.388083   -1.231618   -1.122279
H     -0.043868    1.042439    1.484474
H      0.077112   -0.740525    1.504715
H     -1.229920    0.944237   -0.725452
H     -2.474597   -0.890155    1.436116
H     -2.545686    0.918091    1.398267
H     -3.367056   -0.040951    0.116658
19

C      2.943937    0.314815    0.117143
C      1.457234    0.310547    0.293284
C      0.672771   -0.451835   -0.485260
C     -0.833275   -0.488161   -0.344685
C     -1.245331   -1.024748    1.033157
C     -1.452245    0.891047   -0.626238
O     -2.850147    0.779889   -0.694553
O     -3.297345    1.997355   -0.935625
H      3.202975    0.655537   -0.907559
H      3.347664   -0.706704    0.280575
H      3.406570    1.005545    0.852750
H      1.022716    0.938069    1.065648
H      1.128602   -1.072420   -1.252689
H     -1.219981   -1.196847   -1.110494
H     -2.346718   -1.160787    1.077743
H     -0.769256   -2.011939    1.215867
H     -0.942204   -0.325123    1.840907
H     -1.061007    1.269642   -1.598755
H     -1.164958    1.605729    0.178782
19

C      2.036338    0.109400    0.726841
C      1.559618    0.836806   -0.495718
C      0.366609    0.665649   -1.101312
C     -0.785064   -0.221470   -0.652709
C     -0.384132   -1.686728   -0.437707
C     -1.530324    0.351118    0.563378
O     -1.962836    1.657959    0.285469
O     -2.595273    2.066977    1.368582
H      2.183794   -0.965695    0.501096
H      1.338054    0.241332    1.574359
H      3.020137    0.521771    1.034174
H      2.251359    1.545150   -0.943314
H      0.196675    1.240544   -2.007987
H     -1.514829   -0.223193   -1.493613
H     -1.288193   -2.330796   -0.485537
H      0.077052   -1.839754    0.558890
H      0.319351   -2.020214   -1.230328
H     -0.875844    0.347008    1.459809
H     -2.412493   -0.295864    0.775626
17

C      3.338621    0.062634    0.381124
C      1.896906   -0.023169    0.149324
C      0.708388   -0.093870   -0.041179
C     -0.741805   -0.179912   -0.273729
C     -1.279429   -1.492463    0.305547
C     -1.442373    1.037083    0.345694
O     -2.807008    1.020201    0.016189
O     -3.330107    2.085595    0.592035
H      3.868435    0.098725   -0.592957
H      3.566107    0.981313    0.960028
H      3.674987   -0.827039    0.952252
H     -0.915044   -0.175686   -1.371884
H     -2.364588   -1.592380    0.091187
H     -0.758124   -2.357631   -0.158205
H     -1.126274   -1.529716    1.406060
H     -1.313134    1.019398    1.453168
H     -0.975561    1.966917   -0.054980
21

C     -1.456552    1.068101   -0.225057
C     -0.926020   -0.363474   -0.039839
C     -1.287513   -0.883504    1.360531
C      0.596695   -0.522926   -0.361959
C      0.846390   -0.477681   -1.879172
C      1.519693    0.493291    0.346177
O      1.459349    0.327281    1.737687
O      2.253236    1.249705    2.246841
H     -1.211594    1.455254   -1.234853
H     -1.036310    1.753083    0.541061
H     -2.562688    1.075023   -0.121169
H     -1.486269   -1.009441   -0.752735
H     -2.391736   -0.957626    1.459890
H     -0.921498   -0.201793    2.155063
H     -0.863169   -1.896811    1.523760
H      0.910161   -1.539230   -0.032977
H      0.645196    0.533932   -2.289062
H      0.201765   -1.215038   -2.403185
H      1.903576   -0.738798   -2.100006
H      2.567205    0.318566    0.008388
H      1.240084    1.532087    0.060617
19

C     -1.395871    1.090825    0.525469
C     -0.914226    0.020437   -0.129517
C     -1.885844   -1.013573   -0.636632
C      0.581626   -0.158098   -0.360527
C      1.146397    0.980931   -1.219584
C      1.351440   -0.283386    0.964932
O      0.858314   -1.374245    1.698671
O      1.564286   -1.408286    2.812528
H     -0.736318    1.861925    0.909281
H     -2.463513    1.209121    0.686059
H     -2.593352   -0.544282   -1.352651
H     -2.458725   -1.439080    0.214413
H     -1.366837   -1.845613   -1.155922
H      0.755469   -1.099389   -0.927010
H      2.209418    0.777523   -1.470353
H      0.575921    1.060197   -2.169745
H      1.090828    1.952554   -0.684462
H      2.430974   -0.443152    0.739616
H      1.250014    0.655592    1.555433
19

C      1.414613   -0.721739    0.845017
C      0.378004    0.030891   -0.005157
C      0.886296    1.421114   -0.432988
C     -0.140873   -0.798424   -1.187419
C     -1.535488   -0.811190   -0.570624
C     -1.033162    0.004025    0.618599
O     -1.661529    1.261338    0.668675
O     -1.314996    1.790956    1.826009
H      1.627966   -0.151642    1.774114
H      1.043208   -1.730324    1.128885
H      2.359764   -0.843896    0.274346
H      1.099287    2.042833    0.462197
H      0.137643    1.947740   -1.063261
H      1.822281    1.316959   -1.022007
H      0.296391   -1.819595   -1.251220
H     -0.122512   -0.261252   -2.161642
H     -1.858730   -1.834181   -0.277986
H     -2.279567   -0.269798   -1.195916
H     -1.118595   -0.573813    1.570377
19

C     -2.050540   -0.391836    0.568612
C     -0.716017   -0.157270   -0.145825
C     -0.638889    1.025810   -1.123036
C      0.055995   -1.416545   -0.539963
C      0.533928   -0.567839    0.641683
C      1.841057    0.201824    0.410697
O      1.775045    1.427702    1.088572
O      2.937275    2.016978    0.882882
H     -2.313223    0.508326    1.162639
H     -2.011065   -1.266619    1.253009
H     -2.847635   -0.570846   -0.183014
H     -0.529389    1.970865   -0.551470
H      0.200300    0.937256   -1.842893
H     -1.577024    1.079782   -1.714069
H     -0.410017   -2.378605   -0.237552
H      0.667500   -1.342736   -1.464582
H      0.362693   -1.029793    1.638134
H      2.049883    0.367547   -0.669233
H      2.670122   -0.414000    0.825409
19

C      2.118319   -0.331343    0.316249
C      0.897489   -0.212803   -0.602780
C      0.149109    1.121744   -0.536511
O     -0.342718    1.510797   -1.788675
O     -1.260295    2.420157   -1.529365
C     -0.490324   -0.141296    0.051739
C     -0.597388   -0.178946    1.583036
C     -1.628228   -0.797576   -0.741743
H      3.038257   -0.234385   -0.296582
H      2.150885    0.451274    1.102346
H      2.121548   -1.331710    0.796820
H      0.942917   -0.692091   -1.605052
H      0.576852    1.899634    0.135112
H      0.068970    0.558100    2.076985
H     -1.638755    0.056786    1.887053
H     -0.345308   -1.196953    1.946603
H     -1.758472   -1.845442   -0.399366
H     -2.572793   -0.243074   -0.561170
H     -1.430067   -0.812874   -1.834698
19

C      2.211774    0.196016    0.232132
C      0.917958   -0.622518    0.148308
C      0.193378   -0.577910   -1.202005
C     -0.411050    0.134143    0.010325
C     -0.386519    1.670718   -0.034219
C     -1.656265   -0.513219    0.650731
O     -1.592571   -1.917325    0.639908
O     -2.705230   -2.333220    1.213679
H      2.336228    0.907125   -0.610557
H      3.076460   -0.499268    0.217170
H      2.231338    0.757069    1.189510
H      0.884190   -1.603555    0.667739
H      0.650135    0.078858   -1.972814
H     -0.278511   -1.541316   -1.487692
H     -1.380318    2.048805   -0.353268
H      0.364753    2.071663   -0.745082
H     -0.168619    2.064912    0.980241
H     -2.553767   -0.173577    0.086079
H     -1.733363   -0.147404    1.699425
19

C      1.967329   -0.322540   -0.578090
C      1.051493    0.613534    0.218825
C      0.513265    0.048269    1.536233
C     -0.430685    0.242861    0.349190
C     -1.403066    1.421202    0.473743
C     -0.960216   -1.042810   -0.309778
O     -1.099808   -0.830665   -1.689462
O     -1.586884   -1.954175   -2.180153
H      1.697964   -0.274829   -1.653543
H      1.922080   -1.377081   -0.236173
H      3.015708    0.023233   -0.465932
H      1.288366    1.699256    0.236198
H      0.432477    0.806233    2.344417
H      0.798052   -1.001147    1.763910
H     -2.288435    1.111187    1.067328
H     -1.740060    1.730539   -0.537554
H     -0.936308    2.298417    0.971562
H     -0.290589   -1.910632   -0.120746
H     -1.950684   -1.280853    0.139636
19

C     -1.822187    0.971740   -0.568366
C     -1.351785   -0.180975    0.323212
C     -0.389214   -1.147169   -0.369240
C      0.696359   -0.782317    0.645101
C      1.963328   -0.155087    0.038970
O      1.646614    0.922721   -0.804395
O      2.799268    1.374251   -1.259754
C     -0.255377    0.210391    1.315328
H     -2.495784    0.578518   -1.358421
H     -0.965781    1.487475   -1.052048
H     -2.384397    1.708158    0.043312
H     -2.198070   -0.709300    0.816219
H     -0.143698   -0.867583   -1.418016
H     -0.716015   -2.205288   -0.269549
H      0.938906   -1.637504    1.315008
H      2.503077   -0.942452   -0.534150
H      2.614889    0.191286    0.872777
H      0.067288    1.272575    1.237657
H     -0.507424   -0.089438    2.355966
19

C     -2.124144   -0.607923   -0.577292
C     -1.190962    0.285818    0.244689
C     -0.057332   -0.477615    0.930390
C      0.967844    0.285368    0.084428
C      1.776644   -0.633012   -0.850048
O      1.780243    1.101670    0.899252
O      2.407491    1.940163    0.094796
C     -0.173593    1.051227   -0.601337
H     -1.550512   -1.259699   -1.271213
H     -2.817888    0.024710   -1.169816
H     -2.721842   -1.248063    0.105028
H     -1.743155    0.948181    0.947963
H     -0.074982   -1.574575    0.740761
H      0.007235   -0.234739    2.014137
H      2.481778   -1.248585   -0.252664
H      2.356588   -0.028420   -1.578487
H      1.105055   -1.311057   -1.419471
H     -0.177605    2.137684   -0.363549
H     -0.250864    0.848868   -1.693166
19

C     -2.398388    0.011644   -0.032905
C     -1.013446   -0.635879    0.055490
C     -0.179780   -0.475854   -1.216278
C      0.846996    0.354174   -0.438138
C      2.234240   -0.311034   -0.377262
O      0.887245    1.678885   -0.921840
O      1.545786    2.392491   -0.027012
C      0.003916    0.196072    0.836193
H     -3.032440   -0.562155   -0.740966
H     -2.328907    1.064179   -0.383809
H     -2.879890   -0.002662    0.967382
H     -1.055759   -1.691407    0.405159
H      0.210634   -1.451980   -1.580575
H     -0.690709    0.103641   -2.017771
H      2.150941   -1.373858   -0.062905
H      2.883621    0.216045    0.352816
H      2.713521   -0.271295   -1.378137
H     -0.405156    1.158839    1.215921
H      0.507574   -0.399845    1.629038
19

C     -1.993002   -0.752365   -0.276198
C     -0.925518    0.265367   -0.688975
C      0.391792   -0.376690   -1.126910
C      1.105472    0.286607    0.051505
C      1.671129   -0.711611    1.065250
C     -0.216123    0.923359    0.498326
O     -0.199166    2.321341    0.361549
O      0.406554    2.780028    1.439837
H     -1.592297   -1.480757    0.461565
H     -2.345356   -1.305650   -1.171939
H     -2.856809   -0.221570    0.176214
H     -1.306256    0.997934   -1.435853
H      0.743965    0.020357   -2.104004
H      0.389374   -1.489349   -1.087154
H      1.863778    1.031235   -0.279722
H      2.527996   -1.254599    0.614089
H      2.029103   -0.165723    1.963286
H      0.901204   -1.450134    1.376968
H     -0.595841    0.582218    1.491776
19

C     -1.936708   -0.671753   -0.115092
C     -1.059472    0.556853    0.159710
C     -0.074384    0.856484   -0.971887
C      1.098298    0.632086   -0.015512
C      2.004459   -0.534935   -0.429338
C      0.115368    0.340677    1.128280
O      0.216840   -0.974473    1.622233
O     -0.519509   -1.007935    2.716199
H     -1.323189   -1.551296   -0.406792
H     -2.644259   -0.443625   -0.939713
H     -2.524872   -0.922924    0.792119
H     -1.664521    1.449466    0.433715
H     -0.138872    1.913419   -1.311379
H     -0.116864    0.129957   -1.814469
H      1.676930    1.566281    0.160264
H      2.574620   -0.255680   -1.340150
H      2.725697   -0.754245    0.385731
H      1.413124   -1.450430   -0.647146
H      0.177314    1.122073    1.922839
19

C     -2.538491   -0.029202   -0.177793
C     -1.093923   -0.498534   -0.372072
C     -0.130870    0.624197   -0.757175
C      0.628386    0.417228    0.554530
C      2.076275   -0.052613    0.367579
O      2.846231    1.006384   -0.135901
O      4.071841    0.533962   -0.257747
C     -0.335052   -0.706505    0.938442
H     -3.142689   -0.854915    0.253221
H     -2.972452    0.253896   -1.159707
H     -2.588870    0.847345    0.504012
H     -1.015812   -1.376269   -1.051529
H      0.459956    0.374003   -1.666104
H     -0.605735    1.628930   -0.811092
H      0.544710    1.293242    1.236098
H      2.110831   -0.920034   -0.332098
H      2.471991   -0.371725    1.358314
H      0.140013   -1.711242    0.990982
H     -0.926340   -0.458147    1.847651
19

C     -2.265720   -0.087643    0.580815
C     -0.995979    0.020781   -0.267553
C     -0.083075   -1.201786   -0.161759
C      1.005239   -0.334662    0.473206
C      2.297628   -0.276182   -0.351521
C      0.089716    0.894593    0.371732
O      0.573491    1.870088   -0.518221
O     -0.290737    2.865079   -0.464146
H     -2.937944   -0.857678    0.147474
H     -2.795973    0.887794    0.581478
H     -2.026502   -0.367609    1.629675
H     -1.213025    0.293059   -1.324888
H      0.187632   -1.606968   -1.161965
H     -0.454704   -1.984672    0.536084
H      1.198829   -0.620585    1.531132
H      2.089085   -0.039695   -1.417279
H      2.972088    0.500010    0.067123
H      2.813554   -1.257946   -0.300473
H     -0.163602    1.304020    1.378697
21

C     -2.454649    0.754355   -0.199652
C     -1.063406    0.438248   -0.751995
C     -0.174537   -0.341011    0.249468
C     -0.767008   -1.728398    0.552218
C      1.268283   -0.506207   -0.288803
C      2.070658    0.799998   -0.280784
O      3.408302    0.520587   -0.599760
O      4.038444    1.678966   -0.559377
H     -2.974891    1.453425   -0.888105
H     -2.377962    1.235002    0.798742
H     -3.068512   -0.166780   -0.124306
H     -1.167967   -0.135904   -1.698574
H     -0.587746    1.409106   -0.999080
H     -0.130663    0.222159    1.208477
H     -0.095869   -2.297613    1.230262
H     -0.903327   -2.309512   -0.385061
H     -1.743883   -1.636054    1.069644
H      1.245118   -0.920784   -1.320836
H      1.815385   -1.234573    0.350276
H      2.012450    1.260855    0.731759
H      1.651780    1.504136   -1.032324
21

C      2.374802    0.522355   -0.118030
C      1.424216   -0.632738    0.202777
C      0.002008   -0.435298   -0.377579
C     -0.790917   -1.748280   -0.238228
C     -0.742328    0.768356    0.273638
C     -2.070562    1.070228   -0.428925
O     -1.003546    0.513978    1.637819
O     -0.109701    1.188401    2.337554
H      3.410795    0.234059    0.159087
H      2.109473    1.428273    0.464204
H      2.353607    0.756546   -1.203500
H      1.869226   -1.554091   -0.233547
H      1.378866   -0.779920    1.303304
H      0.109402   -0.232501   -1.466971
H     -1.760632   -1.684616   -0.772547
H     -0.226656   -2.589702   -0.694163
H     -0.977038   -1.987378    0.830413
H     -0.128715    1.688685    0.125685
H     -2.821558    0.279089   -0.224449
H     -1.921037    1.163252   -1.525785
H     -2.479708    2.031300   -0.050759
21

C      2.588843   -0.295667    0.631079
C      1.101776   -0.288563    0.993226
C      0.183122    0.092354   -0.197905
C      0.181607   -1.028377   -1.257436
C     -1.254993    0.398829    0.311625
C     -2.203455    0.807060   -0.827766
O     -1.194972    1.455636    1.244491
O     -2.227916    1.309504    2.054271
H      2.835427   -1.153074   -0.027487
H      3.192512   -0.398196    1.557591
H      2.873905    0.653866    0.130426
H      0.815887   -1.286087    1.393225
H      0.976110    0.445796    1.817392
H      0.584859    1.016337   -0.671419
H     -0.280432   -1.952797   -0.849677
H     -0.372292   -0.713356   -2.164952
H      1.210933   -1.261140   -1.595245
H     -1.652270   -0.532188    0.785584
H     -3.161678    1.183189   -0.411159
H     -2.447559   -0.064042   -1.470229
H     -1.749417    1.610917   -1.445636
19

C     -1.477005    1.693381    0.382239
C     -0.902635    0.413886    0.991219
C     -0.549427   -0.638984   -0.081386
C     -0.145265   -1.967791    0.569934
C      0.525229   -0.155987   -1.029131
C      1.757452    0.160988   -0.628163
O      2.695457    0.602469   -1.554967
O      3.934173    0.923560   -1.161963
H     -2.376997    1.461766   -0.226140
H     -0.720747    2.196268   -0.256591
H     -1.768846    2.391727    1.194691
H     -1.665481   -0.009579    1.680793
H     -0.007263    0.667689    1.598912
H     -1.464766   -0.837571   -0.682392
H      0.730240   -1.833241    1.240276
H      0.110939   -2.714983   -0.211600
H     -0.989862   -2.370645    1.168722
H      0.276734   -0.061718   -2.079528
H      2.038070    0.078767    0.414688
19

C     -2.389198   -0.390925    0.816292
C     -1.468973   -0.106320   -0.113237
O     -1.840546    0.414485   -1.359076
O     -3.121134    0.649072   -1.679408
C      0.000029   -0.337375    0.161814
C      0.556311   -1.347218   -0.851776
C      0.752135    1.009678    0.109588
C      2.193808    0.905051    0.608703
H     -2.105303   -0.791719    1.781184
H     -3.442320   -0.228308    0.630499
H      0.131905   -0.773196    1.178395
H      0.556752   -0.919996   -1.877665
H     -0.063180   -2.269872   -0.849613
H      1.591955   -1.640813   -0.582565
H      0.223120    1.745055    0.755577
H      0.753385    1.411767   -0.927481
H      2.640111    1.920480    0.661445
H      2.223202    0.454329    1.623415
H      2.807941    0.295825   -0.086091
19

C      2.358826    0.183802    1.000806
C      1.206859   -0.415607    0.675637
C      0.328990    0.079166   -0.463242
C     -0.158780    1.515045   -0.140473
C     -0.873865   -0.896458   -0.657301
C     -1.868255   -0.930892    0.510806
O      1.135503    0.076002   -1.629236
O      0.429043    0.589266   -2.621645
H      2.707373    1.061424    0.465769
H      2.967026   -0.211455    1.807967
H      0.931118   -1.308169    1.229673
H      0.678697    2.239286   -0.228431
H     -0.959462    1.828608   -0.844049
H     -0.560753    1.576469    0.893707
H     -0.484910   -1.925275   -0.823576
H     -1.446142   -0.619288   -1.568751
H     -2.626342   -1.720027    0.322185
H     -1.363239   -1.160217    1.470793
H     -2.401687    0.038323    0.599361
19

C      2.460025   -0.265912    0.141195
C      1.200456   -0.505150   -0.236294
C      0.036466    0.263352    0.353777
C     -1.305228   -0.452680    0.082533
C     -1.418209   -1.777478    0.838298
C      0.007089    1.700119   -0.197340
O     -0.150437    1.685845   -1.593297
O     -0.166173    2.950812   -1.967050
H      3.274676   -0.836278   -0.292971
H      2.686798    0.493302    0.883476
H      1.017918   -1.282424   -0.973455
H      0.173861    0.327655    1.457043
H     -1.429512   -0.641182   -1.006576
H     -2.145252    0.198106    0.410603
H     -2.412118   -2.231991    0.642017
H     -0.635358   -2.489822    0.503542
H     -1.316735   -1.608385    1.931401
H     -0.834073    2.255287    0.277716
H      0.955806    2.216824    0.074995
19

C      2.270689    1.008546   -0.046464
C      1.509906    0.013360    0.419780
C      0.303195   -0.488327   -0.343978
C     -0.139381   -1.857296    0.196530
C     -0.851658    0.556053   -0.349138
C     -1.386190    0.863575    1.055639
O     -1.923877    0.101623   -1.143224
O     -1.588080    0.328084   -2.400045
H      2.041623    1.493140   -0.990610
H      3.135526    1.341125    0.518249
H      1.787104   -0.454719    1.360746
H      0.622239   -0.652045   -1.397705
H     -1.029500   -2.225900   -0.355495
H      0.678059   -2.597315    0.059154
H     -0.379902   -1.804968    1.279212
H     -0.460952    1.521810   -0.751432
H     -0.567702    1.193940    1.729017
H     -1.887861   -0.024049    1.494044
H     -2.133240    1.683362    0.995329
19

C     -2.243430    0.244061   -1.320089
C     -1.946600    0.100909   -0.022839
C     -0.569175   -0.292080    0.465412
C     -0.197320   -1.694141   -0.041562
C      0.476024    0.775474    0.068817
C      1.812392    0.597256    0.795562
O      2.653580    1.676383    0.485055
O      3.774417    1.461723    1.146928
H     -3.247444    0.528183   -1.617788
H     -1.496528    0.081036   -2.090246
H     -2.727464    0.274994    0.711913
H     -0.620275   -0.337199    1.576016
H     -0.007335   -1.684492   -1.135954
H     -1.021004   -2.408792    0.172177
H      0.710073   -2.067130    0.476734
H      0.652532    0.752591   -1.028977
H      0.076883    1.782072    0.325926
H      2.289225   -0.353305    0.468280
H      1.631450    0.562457    1.894246
17

C      2.166892    1.496306   -0.393881
C      1.418046    0.596423   -0.104709
C      0.497284   -0.509396    0.250983
C      0.231925   -1.337316   -1.016727
C     -0.835559    0.046635    0.835275
C     -1.653363    0.903467   -0.138510
O      1.115974   -1.376339    1.184585
O      1.419430   -0.672126    2.262245
H      2.823725    2.286179   -0.647703
H     -0.526347   -2.123681   -0.813059
H      1.166991   -1.838922   -1.348804
H     -0.125999   -0.701110   -1.854484
H     -1.468926   -0.802334    1.173967
H     -0.620251    0.669567    1.731024
H     -2.057259    0.283967   -0.965752
H     -1.038079    1.727761   -0.555711
H     -2.514483    1.350921    0.401261
17

C      2.618273   -1.724334    0.377763
C      1.636615   -1.036481    0.508882
C      0.437474   -0.196524    0.669989
C     -0.741754   -0.862376   -0.073462
C     -2.089732   -0.202802    0.218103
C      0.742774    1.224869    0.161464
O     -0.219691    2.126446    0.641860
O      0.098169    3.300579    0.131196
H      3.479775   -2.327978    0.262517
H      0.210471   -0.152989    1.757877
H     -0.815638   -1.926351    0.245202
H     -0.560583   -0.854244   -1.171050
H     -2.905850   -0.837291   -0.187579
H     -2.242096   -0.090014    1.312522
H     -2.155533    0.789138   -0.274171
H      1.746305    1.540885    0.531735
H      0.761021    1.229467   -0.953174
17

C      1.883688    1.931868    0.511038
C      1.244245    0.970963    0.162375
C      0.461591   -0.203553   -0.264704
C      1.261245   -1.480580    0.012975
C     -0.928359   -0.241899    0.420052
C     -1.813837    0.913178   -0.058558
O     -0.796573   -0.155516    1.823591
O     -0.887115   -1.384576    2.297591
H      2.444614    2.775289    0.817293
H      0.316398   -0.134926   -1.365224
H      1.501230   -1.573724    1.093918
H      2.213584   -1.466005   -0.559875
H      0.682164   -2.373250   -0.306105
H     -1.453075   -1.177551    0.104110
H     -2.820103    0.828733    0.404141
H     -1.376579    1.892753    0.229641
H     -1.933117    0.878795   -1.162588
17

C     -1.875350    1.987848    0.186524
C     -1.345318    0.916902    0.347748
C     -0.697022   -0.391187    0.545738
C     -1.589173   -1.493103   -0.032080
C      0.696474   -0.419487   -0.113117
C      1.688736    0.520137    0.579251
O      2.944185    0.400713   -0.035346
O      3.742299    1.227710    0.612289
H     -2.340233    2.927859    0.044871
H     -0.591564   -0.569109    1.638246
H     -2.587811   -1.474594    0.455634
H     -1.721543   -1.358588   -1.127770
H     -1.134917   -2.489743    0.153867
H      1.104826   -1.452953   -0.058243
H      0.615193   -0.143950   -1.188463
H      1.764958    0.241797    1.655316
H      1.326259    1.569749    0.495209
15

C      2.475697    0.569853   -1.376242
C      1.344245    0.462492   -0.973337
C     -0.037133    0.332621   -0.481917
C     -0.462861   -1.116201   -0.513008
C     -1.744214   -1.470529   -0.374278
C     -0.155022    0.922987    0.931363
O      0.646797    0.201531    1.832092
O      0.479448    0.779604    3.005943
H      3.468732    0.663971   -1.729625
H     -0.690373    0.914419   -1.168440
H      0.276385   -1.897358   -0.674315
H     -2.518749   -0.723761   -0.228428
H     -2.024953   -2.518098   -0.410647
H     -1.220466    0.887238    1.254520
H      0.162468    1.991229    0.906318
19

C     -0.209671    0.028225    1.569540
C      0.104873   -0.337271    0.314135
C      1.559854   -0.414914   -0.094898
C      2.145666    0.978684   -0.303771
C     -0.986502   -0.698240   -0.677422
C     -1.815410    0.542303   -1.034442
O     -1.809864   -1.695068   -0.116481
O     -2.437606   -2.278670   -1.121011
H      0.565500    0.276286    2.288431
H     -1.243781    0.077690    1.896165
H      2.142867   -0.951458    0.685231
H      1.673578   -0.989812   -1.038478
H      1.579113    1.518599   -1.092329
H      2.107904    1.563164    0.639947
H      3.205495    0.892213   -0.623438
H     -0.509536   -1.070101   -1.614995
H     -1.152933    1.348959   -1.415272
H     -2.550045    0.293101   -1.828976
H     -2.369500    0.916309   -0.147537
19

C      2.018908    0.112069    0.005059
C      0.693440    0.471020   -0.677103
O      0.666235   -0.049065   -1.985789
O      1.381523    0.770093   -2.734803
C     -0.498007   -0.114060    0.112610
C     -0.631358   -1.636872    0.260267
C     -1.012344    0.716089    1.283117
C     -1.812148    0.650255   -0.014361
H      2.859019    0.632329   -0.501523
H      2.003967    0.431584    1.068922
H      2.203280   -0.981791   -0.045301
H      0.607938    1.585138   -0.696617
H     -0.606811   -2.114044   -0.741396
H     -1.580601   -1.924732    0.761341
H      0.209357   -2.030188    0.867926
H     -0.508179    1.692347    1.447253
H     -1.470955    0.145698    2.118998
H     -2.743427    0.050634    0.071859
H     -1.779836    1.593497   -0.600459
19

C      2.277566    0.093341    0.277101
C      1.006264    0.841723   -0.116057
C     -0.243601   -0.049047    0.008218
C     -0.401908   -1.236507   -0.954596
C     -0.809064   -0.235966    1.413332
C     -1.517498    0.688682    0.426315
O     -2.719774    0.137606   -0.033436
O     -3.024697    0.833566   -1.109736
H      2.475319   -0.739968   -0.428725
H      3.141934    0.789528    0.243643
H      2.187092   -0.309624    1.308111
H      0.918726    1.744301    0.528411
H      1.098868    1.190146   -1.166939
H      0.457373   -1.928786   -0.844127
H     -1.327552   -1.818638   -0.760410
H     -0.430055   -0.863237   -1.999488
H     -0.268794    0.301863    2.221499
H     -1.326442   -1.201747    1.600383
H     -1.493757    1.762763    0.716113
19

C      2.028698    0.755962    0.277717
C      0.964305    0.330459   -0.730191
C     -0.218036   -0.380913   -0.040017
C      0.024812   -1.756219    0.593674
C     -1.565367   -0.229731   -0.747036
C     -1.322311    0.465601    0.590444
O     -1.127129    1.847804    0.471991
O     -2.322060    2.379936    0.630941
H      2.832779    1.314468   -0.246138
H      1.586414    1.415588    1.053948
H      2.481576   -0.132740    0.764910
H      0.628099    1.230319   -1.290223
H      1.421443   -0.363638   -1.467569
H      0.473374   -2.438530   -0.158250
H      0.722046   -1.655790    1.450633
H     -0.916008   -2.213942    0.968621
H     -1.594856    0.461736   -1.616627
H     -2.264094   -1.089660   -0.668875
H     -1.833683    0.059289    1.491658
19

C     -1.311713    1.222312    0.386397
C     -0.650557   -0.082522    0.853531
C     -1.201033   -1.321844    0.147693
C      0.189101   -1.641699   -0.391062
C      0.755805   -0.409844    0.315899
C      1.416650    0.591292   -0.646243
O      1.777960    1.749590    0.057836
O      2.337251    2.550427   -0.828722
H     -2.347419    1.267988    0.783726
H     -0.751601    2.094116    0.783012
H     -1.365659    1.287891   -0.720299
H     -0.696795   -0.187126    1.960582
H     -1.562957   -2.091091    0.864521
H     -1.926134   -1.100860   -0.666764
H      0.229892   -1.589002   -1.501736
H      0.594184   -2.591506    0.021673
H      1.447785   -0.699778    1.138456
H      0.736234    0.840208   -1.491099
H      2.329005    0.111448   -1.067400
19

C      1.841393   -0.665926   -0.243715
C      0.877735    0.374700    0.345996
C      0.448274    1.440538   -0.662213
C     -1.012344    1.049242   -0.468047
C     -0.598519   -0.037873    0.537889
C     -0.972212   -1.472054    0.100979
O     -1.010661    0.246450    1.858563
O     -2.331430    0.240064    1.862941
H      1.943639   -1.522675    0.454548
H      1.500537   -1.034447   -1.233756
H      2.842030   -0.203313   -0.375647
H      1.307234    0.837955    1.263140
H      0.660632    2.471732   -0.304222
H      0.797368    1.253735   -1.701949
H     -1.465459    0.648341   -1.401535
H     -1.603808    1.874843   -0.014669
H     -0.472291   -2.211203    0.761434
H     -0.682645   -1.666690   -0.952484
H     -2.069475   -1.623420    0.172747
19

C      2.053277   -0.238770   -0.434020
C      0.796557   -0.118165    0.438461
C      0.428111    1.329935    0.763899
C     -0.898861    1.167161    0.030868
C     -0.547346   -0.291883   -0.298037
C     -1.461242   -1.331060    0.378268
O     -0.381691   -0.527066   -1.681297
O     -1.559164   -0.334364   -2.247214
H      2.947297    0.035554    0.164496
H      2.167368   -1.287815   -0.779173
H      1.999896    0.431201   -1.319243
H      0.882782   -0.735916    1.360919
H      0.287994    1.494127    1.854754
H      1.085142    2.088910    0.284004
H     -0.956743    1.820983   -0.867049
H     -1.772304    1.276272    0.711081
H     -1.527763   -1.149930    1.472887
H     -1.056347   -2.351162    0.209561
H     -2.486961   -1.278014   -0.043167
19

C     -0.995570   -1.394941    0.603479
C     -0.287255   -0.608092   -0.508002
C      1.237645   -0.582288   -0.347571
O      1.901067   -1.008232   -1.509977
O      1.908193   -2.326053   -1.455023
C      1.206580    0.942506   -0.257992
C     -0.314666    0.928485   -0.416405
C     -1.057914    1.554588    0.772277
H     -2.087932   -1.201868    0.564202
H     -0.609487   -1.128045    1.609607
H     -0.827381   -2.480981    0.445880
H     -0.604735   -0.958086   -1.516168
H      1.631827   -1.047558    0.587093
H      1.555994    1.309162    0.732630
H      1.714016    1.443335   -1.112041
H     -0.630302    1.387174   -1.380096
H     -2.142367    1.329645    0.698467
H     -0.670010    1.184437    1.744402
H     -0.927703    2.656815    0.745240
19

C      1.400268   -1.156678    0.530309
C      0.825569   -0.120530   -0.450841
C     -0.681796   -0.194171   -0.757037
C     -1.506561   -1.247428   -0.003464
C     -0.860094    1.221124   -0.203830
C      0.635666    1.296636    0.109990
O      0.881627    1.383070    1.492050
O      0.732795    2.655792    1.804970
H      0.860163   -1.163408    1.499511
H      2.467269   -0.921688    0.727444
H      1.344770   -2.168927    0.078114
H      1.419958   -0.099818   -1.391748
H     -0.874094   -0.234732   -1.852522
H     -2.577966   -1.132576   -0.270865
H     -1.411403   -1.136551    1.097183
H     -1.180137   -2.265614   -0.301535
H     -1.500688    1.277399    0.704627
H     -1.157324    1.945956   -0.992790
H      1.181978    2.062144   -0.489957
19

C     -1.867841    0.866247    0.565529
C     -0.622382   -0.023639    0.608920
C     -0.867610   -1.440240    0.089759
C      0.102389   -1.191353   -1.059797
C      0.348582    0.229628   -0.551135
C      1.794536    0.474317   -0.102133
O      1.885479    1.739385    0.497142
O      3.150024    1.883114    0.844108
H     -2.599733    0.519086    1.324788
H     -1.583215    1.913748    0.798736
H     -2.348596    0.838736   -0.436402
H     -0.140006   -0.022788    1.612412
H     -0.495594   -2.216917    0.793218
H     -1.906090   -1.624044   -0.264944
H     -0.405827   -1.202812   -2.048783
H      0.993974   -1.855319   -1.012079
H     -0.003276    0.997327   -1.277336
H      2.452679    0.431414   -0.999370
H      2.112507   -0.315890    0.617367
19

C     -1.725531   -1.059690   -0.346890
C     -0.486169   -0.518239    0.377729
C      0.866672   -1.000725   -0.166832
O      0.745515   -1.847530   -1.283268
O      1.974961   -2.210313   -1.594237
C      1.217519    0.433761   -0.564560
C     -0.129430    0.918223   -0.025533
C     -0.001912    1.872477    1.165485
H     -1.664557   -0.885613   -1.442909
H     -2.632300   -0.551291    0.042925
H     -1.822024   -2.149431   -0.157587
H     -0.560060   -0.665800    1.478959
H      1.518390   -1.413219    0.639009
H      2.097516    0.819942   -0.004111
H      1.302094    0.573812   -1.664865
H     -0.775135    1.336556   -0.830381
H     -1.005551    2.054478    1.603907
H      0.662590    1.451007    1.950685
H      0.417411    2.841593    0.822473
19

C      2.044049   -0.109360    0.204419
C      0.549811   -0.042028    0.531145
C     -0.338611   -0.659449   -0.555546
C     -1.343357   -1.679830   -0.012747
C     -0.954469    0.713387   -0.830169
C     -0.067527    1.332683    0.247860
O     -0.835266    1.800525    1.326915
O      0.022685    2.350106    2.164522
H      2.251421    0.276558   -0.817261
H      2.612746    0.497818    0.939681
H      2.390863   -1.162105    0.268275
H      0.330584   -0.414918    1.557644
H      0.224087   -1.050375   -1.433236
H     -2.060269   -1.958264   -0.813483
H     -1.910251   -1.267724    0.850162
H     -0.803979   -2.593209    0.315017
H     -2.041285    0.779806   -0.598537
H     -0.701010    1.088594   -1.845791
H      0.629780    2.097786   -0.169260
19

C      2.160963    0.159935    0.044249
C      0.723244   -0.083298   -0.426512
C      0.143333   -1.385583    0.115162
C     -1.366589   -1.172733    0.183177
C     -1.613991    0.327113    0.022121
C     -0.241649    0.998759    0.047710
O     -0.193709    2.107778   -0.817459
O     -0.823852    3.087957   -0.197517
H      2.214561    0.205368    1.153278
H      2.537324    1.118327   -0.372117
H      2.818211   -0.661077   -0.312945
H      0.711261   -0.126278   -1.540091
H      0.528692   -1.592084    1.138939
H      0.400678   -2.241966   -0.545669
H     -1.870660   -1.732619   -0.635057
H     -1.763778   -1.532188    1.157768
H     -2.258204    0.716762    0.840226
H     -2.117283    0.516965   -0.952239
H      0.011448    1.288863    1.096976
19

C      2.160261    0.155858    0.024124
C      0.721680   -0.104327    0.488390
C      0.105349   -1.342521   -0.154523
C     -1.402955   -1.102255   -0.158041
C     -1.622706    0.364462    0.213976
C     -0.249614    1.033724    0.172556
O     -0.003059    1.549722   -1.116574
O     -0.583882    2.734296   -1.161946
H      2.543374    1.089141    0.488594
H      2.216544    0.253569   -1.081022
H      2.812764   -0.686596    0.337334
H      0.736019   -0.253784    1.592649
H      0.366131   -2.259378    0.417943
H      0.460430   -1.459045   -1.202971
H     -1.822649   -1.313228   -1.166122
H     -1.903281   -1.764520    0.582162
H     -2.030114    0.427587    1.247390
H     -2.343962    0.851150   -0.478285
H     -0.160328    1.826146    0.954368
19

C     -2.152369   -0.782342    0.466150
C     -0.663976   -0.708725    0.112719
C     -0.414217   -0.004149   -1.211768
C      1.019928    0.490507   -1.124220
C      1.313886    0.708981    0.367216
O      2.520824    0.085247    0.737370
O      3.491354    0.869131    0.305714
C      0.147386    0.079789    1.136946
H     -2.282523   -1.294270    1.443186
H     -2.596439    0.234259    0.531598
H     -2.695911   -1.361479   -0.310266
H     -0.256355   -1.743491    0.050423
H     -0.553609   -0.695150   -2.071538
H     -1.095255    0.868967   -1.327085
H      1.150214    1.431958   -1.700989
H      1.698408   -0.284069   -1.546645
H      1.342670    1.801221    0.598732
H      0.497361   -0.585781    1.956750
H     -0.471378    0.889394    1.585707
19

C     -2.238622    0.160461    0.419729
C     -0.884870    0.302316   -0.282519
C     -0.354266   -1.027011   -0.817540
C      1.168682   -0.965366   -0.692702
C      1.507521    0.347275    0.016667
O      2.502280    0.135791    0.989517
O      2.947995    1.330847    1.329431
C      0.202398    0.819033    0.648644
H     -2.576258    1.151159    0.791482
H     -2.168809   -0.540444    1.279283
H     -2.995762   -0.224021   -0.296181
H     -0.993818    1.014003   -1.132470
H     -0.737245   -1.881470   -0.215663
H     -0.661990   -1.173225   -1.876037
H      1.645102   -0.995245   -1.697212
H      1.531527   -1.838814   -0.106154
H      1.842753    1.086147   -0.751166
H      0.170675    1.927361    0.730419
H      0.092708    0.371204    1.662473
17

C      2.143265    0.429107   -0.015756
C      0.851784    0.085240    0.044791
C      0.387806   -1.250627    0.507336
C     -1.123009   -1.209480    0.311810
C     -1.507712    0.267704    0.210441
C     -0.271178    1.009040   -0.296640
O     -0.359198    1.174132   -1.692431
O      0.416277    2.196904   -2.000266
H      2.916121   -0.281328    0.260888
H      2.438161    1.423217   -0.335924
H      0.843329   -2.063203   -0.099387
H      0.640795   -1.385447    1.581399
H     -1.652810   -1.706893    1.152973
H     -1.388758   -1.723960   -0.638182
H     -2.384163    0.410728   -0.459019
H     -1.772962    0.642960    1.223995
H     -0.177746    1.981908    0.243973
17

C      2.338391    0.163327    0.523038
C      1.042647    0.152345    0.194387
C      0.357639    1.287339   -0.479073
C     -1.114931    0.891586   -0.466756
C     -1.157488   -0.628013   -0.265019
O     -2.292656   -0.987292    0.484705
O     -2.425529   -2.293779    0.351442
C      0.137088   -0.995582    0.465752
H      2.956266    1.028098    0.301818
H      2.789825   -0.692390    1.015478
H      0.730683    1.385776   -1.521533
H      0.515802    2.237095    0.076891
H     -1.622126    1.402072    0.382579
H     -1.617739    1.186191   -1.413519
H     -1.170891   -1.108636   -1.273272
H     -0.026643   -1.087134    1.561839
H      0.559661   -1.941002    0.061243
17

C      1.793724    0.550642    0.087214
C      0.381630    0.288038   -0.447647
C      0.163451   -1.192359   -0.806757
C     -1.144798   -1.527466   -0.188960
C     -1.614764   -0.546151    0.561283
C     -0.710962    0.634512    0.590363
O     -1.432548    1.780427    0.213005
O     -0.683987    2.813843    0.549531
H      1.913289    1.627819    0.329332
H      2.546158    0.278406   -0.683168
H      1.985073   -0.047369    1.004173
H      0.233832    0.900037   -1.366682
H      0.115087   -1.333862   -1.907833
H      0.947251   -1.854194   -0.377867
H     -1.645822   -2.482853   -0.305729
H     -2.540405   -0.617374    1.123487
H     -0.306208    0.727903    1.626256
17

C     -2.097477   -0.362541    0.202240
C     -0.819862    0.278845   -0.348849
C     -0.058654    1.082550    0.721851
C      1.352777    0.653901    0.564123
C      1.474213   -0.342922   -0.293017
O      2.684536   -0.957122   -0.617530
O      3.840191   -0.556399   -0.069761
C      0.179339   -0.765552   -0.876964
H     -2.611634   -0.931016   -0.601620
H     -1.861201   -1.055282    1.038532
H     -2.786642    0.426126    0.572057
H     -1.097497    0.963625   -1.181996
H     -0.150791    2.175040    0.541202
H     -0.397889    0.842809    1.753223
H      2.178943    1.087376    1.112520
H      0.230507   -0.744959   -1.986854
H     -0.058858   -1.794479   -0.529157
17

O      3.694608    0.005027   -0.667189
O      2.638268    0.626883   -0.179718
C      1.655368   -0.361315   -0.012331
C      0.376100    0.270792    0.552385
C     -0.223041    1.230511   -0.419154
C     -1.443095    0.881968   -0.786766
C     -1.892732   -0.377164   -0.140480
C     -0.736268   -0.770221    0.784702
H      1.431369   -0.851833   -0.988393
H      2.018342   -1.132394    0.705161
H      0.607084    0.802724    1.501774
H      0.277846    2.120634   -0.786635
H     -2.040476    1.450989   -1.491553
H     -2.825313   -0.198848    0.436644
H     -2.065263   -1.155717   -0.914283
H     -0.401154   -1.807477    0.561204
H     -1.071643   -0.734560    1.844631
17

C     -1.792532   -0.004065   -0.596478
C     -0.573307    0.074282    0.343965
O     -0.971086    0.157962    1.699485
O     -1.643885    1.285246    1.853700
C      0.321020    1.218819   -0.029977
C      1.561654    0.837899   -0.275415
C      1.745690   -0.626291   -0.122897
C      0.340331   -1.162121    0.168256
H     -2.400784    0.923431   -0.536509
H     -1.466032   -0.130527   -1.651643
H     -2.433409   -0.866700   -0.315135
H      0.001741    2.255644   -0.073415
H      2.357726    1.527054   -0.537555
H      2.432763   -0.830736    0.726162
H      2.156110   -1.060987   -1.059521
H      0.011493   -1.806258   -0.677901
H      0.352509   -1.792651    1.084878
17

C      1.943000    0.034380   -0.068451
C      0.586316    0.161030    0.630763
C     -0.159405   -1.184646    0.702691
C     -1.397486   -1.034989   -0.189482
C     -1.398947    0.393031   -0.589632
C     -0.331277    1.032499   -0.149520
O     -0.076732    2.385527   -0.381565
O     -0.924239    3.144597   -1.089836
H      1.820716   -0.370805   -1.096527
H      2.434763    1.028662   -0.129280
H      2.603216   -0.645772    0.510459
H      0.727367    0.583339    1.649925
H     -0.475072   -1.381845    1.750936
H      0.465962   -2.039200    0.361123
H     -2.326678   -1.279392    0.368562
H     -1.314408   -1.676284   -1.093116
H     -2.177097    0.849867   -1.187050
17

C     -1.819019    0.671319    0.683249
C     -0.715146    0.558777   -0.371297
C      0.604013    0.926352    0.208659
C      1.461895   -0.075599    0.163452
O      2.771692   -0.010215    0.640508
O      3.259816    1.110245    1.190499
C      0.892599   -1.299774   -0.446470
C     -0.522619   -0.888342   -0.866392
H     -2.793408    0.371768    0.242261
H     -1.902865    1.721703    1.035349
H     -1.600674    0.015773    1.554252
H     -0.944325    1.233483   -1.225154
H      0.832447    1.901522    0.619620
H      1.498238   -1.609793   -1.325036
H      0.861767   -2.116530    0.306396
H     -0.611914   -0.922339   -1.974568
H     -1.272497   -1.588350   -0.435328
17

C     -1.890418    0.034901    0.765301
C     -0.948542   -0.100048   -0.433926
C     -0.316024    1.209580   -0.752819
C      0.998268    1.181881   -0.618531
C      1.502025   -0.147419   -0.183011
O      2.081446   -0.024172    1.091934
O      2.789167   -1.121829    1.282673
C      0.242218   -1.031453   -0.140985
H     -1.341883    0.407928    1.657533
H     -2.339129   -0.952395    1.005186
H     -2.712165    0.743133    0.525632
H     -1.518124   -0.462318   -1.317733
H     -0.866078    2.095644   -1.053747
H      1.633269    2.044237   -0.794388
H      2.235397   -0.517469   -0.937757
H      0.140900   -1.551130    0.838026
H      0.309674   -1.809069   -0.933388
17

C     -1.966373    0.168688    0.722204
C     -0.941961   -0.160575   -0.366663
C     -0.314406    1.084863   -0.889132
C      0.983550    1.136649   -0.645632
C      1.473080   -0.055347    0.095844
O      2.523264   -0.654282   -0.621033
O      3.096848   -1.504403    0.209760
C      0.244378   -0.979093    0.174785
H     -1.487840    0.721290    1.559894
H     -2.411305   -0.769222    1.117174
H     -2.783265    0.791976    0.299712
H     -1.442213   -0.702601   -1.198980
H     -0.857292    1.873692   -1.400229
H      1.609782    1.976743   -0.928363
H      1.798852    0.271803    1.111208
H      0.084189   -1.320343    1.221531
H      0.390712   -1.879840   -0.462082
17

C      1.885926   -0.035838    0.792037
C      0.797652   -0.132203   -0.280258
C      0.116623   -1.456365   -0.235448
C     -1.199135   -1.341907   -0.197835
C     -1.643686    0.075692   -0.203367
C     -0.342660    0.885797   -0.064142
O     -0.269491    1.903229   -1.034489
O     -1.073992    2.866111   -0.624290
H      2.347329    0.974205    0.769858
H      1.461942   -0.217251    1.803542
H      2.679279   -0.788393    0.595989
H      1.257511   -0.005303   -1.285619
H      0.630702   -2.411183   -0.284808
H     -1.873731   -2.191748   -0.205799
H     -2.328363    0.268424    0.650159
H     -2.162005    0.293496   -1.162361
H     -0.283900    1.313239    0.966832
17

C      1.445655    0.177680    1.134522
C      0.819619   -0.052157   -0.247810
C      0.289137   -1.443191   -0.333751
C     -1.032055   -1.474104   -0.384913
C     -1.627806   -0.113014   -0.348909
C     -0.426842    0.823109   -0.533072
O     -0.536033    1.933899    0.326898
O      0.249773    2.869175   -0.173433
H      1.880150    1.197443    1.194053
H      0.685977    0.057929    1.937266
H      2.265744   -0.552098    1.306210
H      1.589712    0.104612   -1.034371
H      0.906438   -2.335611   -0.306865
H     -1.609262   -2.392766   -0.399261
H     -2.119527    0.044139    0.635746
H     -2.367903    0.011663   -1.168358
H     -0.412778    1.143293   -1.603951
15

C      1.627123   -0.633424   -1.557803
C      0.762228   -0.129465   -0.681698
C      0.510289    1.281684   -0.487805
C     -0.398150    1.440291    0.454843
C     -0.871414    0.138470    1.025136
O     -2.255991    0.016338    0.815905
O     -2.658866   -0.973847    1.590008
C     -0.087728   -0.933816    0.238249
H      2.210220    0.019410   -2.195012
H      1.758318   -1.704472   -1.644004
H      0.986091    2.091895   -1.025506
H     -0.751534    2.409515    0.782047
H     -0.614039    0.112432    2.110161
H     -0.763421   -1.596216   -0.346011
H      0.546875   -1.538795    0.921489
15

C      2.166750    0.308525    0.032684
C      0.892426   -0.074142   -0.006413
C      0.445016   -1.409428   -0.340732
C     -0.869587   -1.465436   -0.262319
C     -1.475056   -0.156745    0.137315
C     -0.274720    0.797760    0.312543
O     -0.333835    1.864144   -0.602422
O     -1.190152    2.732861   -0.098647
H      2.959780   -0.389482   -0.204209
H      2.426072    1.324185    0.302827
H      1.080443   -2.243418   -0.610306
H     -1.440885   -2.362019   -0.463956
H     -2.027063   -0.273776    1.094368
H     -2.169850    0.192054   -0.657072
H     -0.189337    1.154918    1.366340
17

C      2.386412    0.174060   -0.323881
C      0.909173    0.086285   -0.090168
C      0.022602    0.823822   -0.739485
C     -1.370821    0.551965   -0.298299
O     -2.135795    0.136996   -1.402084
O     -3.397765    0.207849   -1.022082
C     -1.225130   -0.575071    0.741151
C      0.277982   -0.822456    0.903202
H      2.615121   -0.082332   -1.379650
H      2.739706    1.204971   -0.111382
H      2.924479   -0.533442    0.341486
H      0.286463    1.558235   -1.494704
H     -1.781987    1.479769    0.164626
H     -1.726862   -1.506498    0.396742
H     -1.674842   -0.266846    1.710245
H      0.535492   -1.879456    0.675850
H      0.615773   -0.557850    1.928433
17

C      2.351838   -0.133270    0.379666
C      0.879578   -0.189299    0.107940
C      0.203544   -1.319426   -0.021258
C     -1.246038   -1.082669   -0.244983
C     -1.372365    0.442876   -0.379010
O     -2.372470    0.922750    0.487309
O     -2.636554    2.156686    0.099910
C      0.008689    1.011036   -0.006996
H      2.579034   -0.660843    1.329842
H      2.687719    0.921460    0.466307
H      2.905244   -0.618686   -0.451451
H      0.651975   -2.305043    0.058188
H     -1.578700   -1.595736   -1.172851
H     -1.820137   -1.469141    0.625054
H     -1.611254    0.684824   -1.442866
H     -0.016115    1.545373    0.967725
H      0.386011    1.689105   -0.802525
17

C      2.228440    0.021040   -0.281889
C      0.757668   -0.169548   -0.062522
C      0.236311   -1.277254    0.440399
C     -1.243528   -1.208553    0.538559
C     -1.603840    0.173846   -0.016174
C     -0.274875    0.850459   -0.398670
O     -0.054382    2.009314    0.366912
O     -0.777773    2.961959   -0.190876
H      2.764960   -0.053013    0.687301
H      2.426559    1.019144   -0.726063
H      2.609365   -0.759831   -0.973189
H      0.823928   -2.138109    0.744533
H     -1.556856   -1.306780    1.600068
H     -1.702534   -2.015946   -0.071369
H     -2.251202    0.069926   -0.914389
H     -2.154204    0.762450    0.750806
H     -0.228036    1.060895   -1.493437
19

C     -1.416674    1.152411    0.306842
C     -0.847946    0.337674   -0.865513
C     -0.423410   -1.119524   -0.622140
C     -0.512979   -1.727716    0.786657
C      0.639952   -0.045311   -0.899707
C      1.575085    0.419431    0.230436
O      1.805739    1.796276    0.092593
O      2.661053    2.117244    1.044456
H     -0.754099    1.227121    1.187829
H     -1.610335    2.186481   -0.045702
H     -2.384960    0.710820    0.621954
H     -1.314305    0.491531   -1.862049
H     -0.582382   -1.804644   -1.482202
H      0.418777   -2.291313    1.001342
H     -0.684714   -0.996034    1.597555
H     -1.359656   -2.444496    0.806815
H      1.062863   -0.071024   -1.926945
H      1.194851    0.195018    1.247013
H      2.533141   -0.133946    0.110378
19

C     -0.800522    1.794962    0.090861
C     -0.684720    0.416206   -0.569243
C      0.599071   -0.395491   -0.343318
C      1.704386    0.190662    0.545074
O      2.420080    1.148980   -0.187101
O      3.372323    1.580570    0.617439
C     -0.688850   -0.778040    0.387030
C     -1.385742   -2.027862   -0.149657
H     -1.813401    2.201336   -0.109398
H     -0.054734    2.484821   -0.355613
H     -0.662165    1.765112    1.191499
H     -1.149292    0.264668   -1.567523
H      0.894479   -1.045755   -1.195194
H      2.380223   -0.645297    0.833042
H      1.301332    0.638950    1.480130
H     -0.736698   -0.558100    1.475552
H     -0.957420   -2.923791    0.345616
H     -1.270566   -2.140180   -1.249621
H     -2.467782   -1.971753    0.090036
19

C     -0.675683    1.814781    0.671997
C      0.113661    0.507279    0.784262
C      0.872955    0.074095   -0.475910
C      2.217385   -0.608215   -0.207904
C     -0.389715   -0.681603   -0.045192
C     -1.601744   -0.554200   -0.979455
O     -0.149622   -1.945915    0.515711
O     -1.069003   -2.099213    1.448359
H     -0.801526    2.157523   -0.376057
H     -1.675717    1.682523    1.134924
H     -0.134101    2.608423    1.226934
H      0.556088    0.234414    1.766948
H      0.780854    0.735818   -1.364146
H      2.250820   -1.124415    0.775514
H      3.020854    0.156915   -0.227523
H      2.415120   -1.350258   -1.008990
H     -2.531728   -0.515880   -0.375065
H     -1.553011    0.350052   -1.620509
H     -1.645888   -1.442125   -1.643898
21

C      2.466483   -0.856407    0.905880
C      1.714870   -1.154815   -0.391107
C      0.570806   -0.163944   -0.656320
C     -0.596518   -0.332566    0.335172
C     -1.850225    0.488549   -0.043859
C     -1.591765    1.995041    0.039473
O     -2.290252    0.170830   -1.344040
O     -2.929219   -0.981175   -1.255423
H      3.347741   -1.527393    0.983996
H      2.821862    0.195908    0.916322
H      1.816485   -1.036705    1.786964
H      1.322534   -2.194603   -0.363628
H      2.436657   -1.091320   -1.234166
H      0.967198    0.872914   -0.609946
H      0.203255   -0.340521   -1.690086
H     -0.268402   -0.033370    1.353714
H     -0.882025   -1.406047    0.383777
H     -2.648970    0.265173    0.703707
H     -2.546202    2.544357   -0.105629
H     -1.181083    2.265203    1.035710
H     -0.883232    2.320889   -0.750511
21

C      2.944387    0.772870    0.210426
C      1.852400   -0.290749    0.283151
C      0.506771    0.260944   -0.209705
C     -0.613783   -0.791879   -0.102167
C     -1.968545   -0.222506   -0.579210
C     -2.563690    0.799918    0.390258
O     -0.270637   -1.898975   -0.905336
O     -0.896109   -2.945454   -0.397941
H      3.904492    0.345070    0.568446
H      3.077759    1.117692   -0.837135
H      2.681603    1.640844    0.852007
H      1.754173   -0.632874    1.336491
H      2.159229   -1.157706   -0.341091
H      0.608227    0.588741   -1.268055
H      0.248526    1.147831    0.406664
H     -0.697116   -1.089640    0.971843
H     -2.696959   -1.056589   -0.676690
H     -1.857922    0.240176   -1.584222
H     -3.592526    1.060725    0.063794
H     -2.616958    0.379132    1.416756
H     -1.963321    1.732427    0.401715
19

C      2.836705    0.561478    0.758334
C      1.628156   -0.007435    0.780480
C      0.923309   -0.416920   -0.493525
C     -0.571214   -0.679098   -0.236914
C     -1.340801    0.606862    0.103877
C     -2.823880    0.319488    0.318980
O      1.500816   -1.605023   -0.985108
O      2.493915   -1.249678   -1.779402
H      3.317357    0.850309    1.687378
H      3.351147    0.750412   -0.178617
H      1.145748   -0.162355    1.741980
H      0.991206    0.411255   -1.241531
H     -1.013175   -1.123371   -1.156264
H     -0.688280   -1.420217    0.585081
H     -0.930355    1.064724    1.029290
H     -1.234567    1.338739   -0.726232
H     -3.354048    1.264044    0.563407
H     -3.271545   -0.110639   -0.602236
H     -2.960493   -0.392575    1.160632
19

C      2.636283   -0.750014    0.393329
C      1.818650   -0.718675   -0.663038
C      0.975613    0.489279   -0.979813
C     -0.173004    0.694430    0.025766
C     -1.202558   -0.450183   -0.073494
C     -2.309590   -0.319402    0.970780
O     -0.802762    1.920792   -0.279156
O     -1.004240    2.550549    0.864023
H      2.712906    0.098133    1.066804
H      3.240151   -1.630657    0.586223
H      1.781949   -1.575470   -1.329317
H      1.627590    1.390307   -0.986797
H      0.556118    0.378467   -2.003596
H      0.271346    0.691486    1.052057
H     -0.697075   -1.427364    0.084395
H     -1.660601   -0.459397   -1.086768
H     -2.909476    0.597278    0.790259
H     -2.986042   -1.197575    0.905471
H     -1.875260   -0.281983    1.992483
19

C      3.026888   -0.174612    0.820757
C      2.348100   -0.629382   -0.236707
C      1.072831    0.020663   -0.698742
C     -0.078860   -0.257167    0.278239
C     -1.391388    0.389779   -0.194480
C     -2.485955    0.191949    0.860295
O     -1.789920   -0.202740   -1.409297
O     -2.583966    0.664427   -2.009935
H      2.670241    0.678730    1.389554
H      3.951868   -0.656495    1.120186
H      2.744058   -1.471169   -0.797214
H      1.231994    1.116181   -0.805163
H      0.815049   -0.387963   -1.699519
H     -0.221244   -1.356460    0.377920
H      0.188038    0.150027    1.278551
H     -1.209023    1.484958   -0.317088
H     -3.425715    0.683609    0.531323
H     -2.685105   -0.890261    1.014578
H     -2.177892    0.645925    1.826354
17

C      3.388769    0.801271   -0.345874
C      2.364795    0.179418   -0.210121
C      1.114633   -0.580612   -0.045040
C     -0.032826    0.386934    0.277905
C     -1.381836   -0.341660    0.351149
C     -2.518645    0.632163    0.647772
O      1.260917   -1.504223    1.007500
O      1.917244   -2.538044    0.513100
H      4.287482    1.347193   -0.464950
H      0.880599   -1.093231   -1.008217
H      0.168362    0.891627    1.249544
H     -0.088914    1.167138   -0.514429
H     -1.587308   -0.849013   -0.616641
H     -1.353297   -1.111345    1.152680
H     -3.479665    0.078028    0.696438
H     -2.349802    1.136742    1.622951
H     -2.590509    1.397614   -0.154093
17

C      3.509175    0.574903   -0.193037
C      2.492604   -0.034879    0.026561
C      1.255308   -0.778714    0.294578
C      0.021956    0.135692    0.198518
C     -1.236077   -0.640658    0.623015
C     -2.475616    0.252508    0.638526
O     -0.141773    0.576222   -1.133045
O      0.398444    1.778508   -1.210691
H      4.401242    1.110520   -0.385957
H      1.171386   -1.611337   -0.436514
H      1.329213   -1.212266    1.314965
H      0.146732    0.984165    0.917189
H     -1.409878   -1.489353   -0.074560
H     -1.093152   -1.056352    1.644677
H     -3.353791   -0.337785    0.975201
H     -2.330628    1.102539    1.338785
H     -2.685146    0.646286   -0.378536
17

C      3.422040    1.514281    0.705477
C      2.546817    0.700421    0.547244
C      1.482028   -0.290548    0.354694
C      0.117498    0.401546    0.261322
C     -1.016358   -0.611879    0.033373
C     -2.346963    0.122546   -0.166253
O     -1.107624   -1.465232    1.151036
O     -1.703381   -2.568189    0.736526
H      4.190178    2.228851    0.844372
H      1.687057   -0.855641   -0.579490
H      1.497117   -0.996502    1.211956
H     -0.075679    0.969197    1.199297
H      0.138351    1.124696   -0.584889
H     -0.782862   -1.184423   -0.896898
H     -3.160368   -0.608161   -0.360023
H     -2.605197    0.711081    0.740162
H     -2.282653    0.807954   -1.038231
17

C      2.401938    0.241889    1.325512
C      1.886589   -0.643725    0.467748
C      0.669645   -0.329218   -0.360701
C     -0.604667   -0.272712    0.498709
C     -1.798149    0.057523   -0.367141
C     -1.983670    1.281752   -0.870420
O     -0.797338   -1.525798    1.113384
O     -1.620358   -1.325271    2.126437
H      3.288445   -0.009835    1.898371
H      1.949487    1.219832    1.458938
H      2.375852   -1.605129    0.342055
H      0.829276    0.638668   -0.884798
H      0.554150   -1.118580   -1.135606
H     -0.478409    0.527880    1.267300
H     -2.543002   -0.708647   -0.563773
H     -2.857995    1.492477   -1.477560
H     -1.271795    2.078894   -0.678782
15

C      1.518248    2.561435    1.335130
C      1.160634    1.509747    0.866388
C      0.724778    0.225638    0.293254
C     -0.802214    0.110857    0.401553
C     -1.307659   -1.172010   -0.202714
C     -1.300772   -1.379208   -1.522849
O      1.324590   -0.834687    0.999427
O      2.554509   -0.950296    0.532568
H      1.832026    3.484533    1.746627
H      1.006278    0.206922   -0.786085
H     -1.290268    0.971336   -0.108331
H     -1.099406    0.138288    1.473270
H     -1.717050   -1.936907    0.450613
H     -1.685178   -2.309435   -1.928255
H     -0.918518   -0.626213   -2.205285
15

C      3.360015    0.016282    0.387246
C      2.262439    0.327440   -0.002495
C      0.925330    0.706662   -0.477278
C     -0.158968   -0.135518    0.208787
C     -1.515377    0.207814   -0.360021
C     -2.593787   -0.533844   -0.091411
O     -0.145953    0.139613    1.592489
O     -0.460689   -0.983732    2.210657
H      4.323355   -0.257037    0.729577
H      0.888011    0.550017   -1.577042
H      0.763604    1.786087   -0.267084
H      0.062339   -1.209288   -0.013746
H     -1.626830    1.063660   -1.021072
H     -3.554665   -0.269265   -0.520743
H     -2.528825   -1.408891    0.547446
13

C      2.984615   -0.097284    0.140809
C      1.818683   -0.403484    0.121456
C      0.399247   -0.778208    0.097792
C     -0.494503    0.441750   -0.170352
C     -1.883586   -0.002728   -0.338301
C     -3.024528   -0.367246   -0.476875
O     -0.447919    1.333624    0.919734
O      0.469157    2.239831    0.634956
H      4.007906    0.171933    0.157822
H      0.257326   -1.536838   -0.702480
H      0.133757   -1.241019    1.072972
H     -0.194288    0.927006   -1.130642
H     -4.025867   -0.687337   -0.598442
19

C      3.317132    0.008596    0.136528
C      1.918244    0.363510    0.535440
C      0.865562   -0.111883   -0.144534
C     -0.549458    0.233111    0.255823
C     -1.543569   -0.661098   -0.502449
C     -2.982295   -0.422915   -0.046746
O     -0.810741    1.582212   -0.062108
O     -0.559215    2.289004    1.024277
H      3.515430    0.356478   -0.899270
H      3.459276   -1.091446    0.190900
H      4.038465    0.498069    0.823810
H      1.768381    1.011880    1.393978
H      1.037380   -0.774597   -0.990187
H     -0.675517    0.020013    1.346253
H     -1.292535   -1.730403   -0.325566
H     -1.472762   -0.464122   -1.595030
H     -3.287547    0.624980   -0.252069
H     -3.663812   -1.103114   -0.599773
H     -3.082418   -0.628274    1.040335
19

C      3.148504    0.535033   -0.283482
C      1.784335    0.338030    0.300936
C      1.002991   -0.675182   -0.098624
C     -0.366311   -0.899483    0.486064
C     -1.405986    0.060497   -0.116467
C     -2.811143   -0.315631    0.366881
O     -1.108344    1.380338    0.276755
O     -1.667478    2.176096   -0.616200
H      3.630231    1.421292    0.179907
H      3.070826    0.700273   -1.378875
H      3.777531   -0.358992   -0.087836
H      1.436343    1.029660    1.063081
H      1.370797   -1.378097   -0.841733
H     -0.664627   -1.946863    0.261391
H     -0.329639   -0.790602    1.592710
H     -1.369876   -0.050683   -1.227647
H     -3.564739    0.361329   -0.088026
H     -3.056837   -1.357050    0.067977
H     -2.876579   -0.229966    1.472797
19

C      2.178319   -1.037276   -0.385628
C      1.805680    0.247725   -1.066683
C      0.766957    1.017393   -0.695373
C     -0.195220    0.671162    0.422093
C     -1.366719   -0.143416   -0.148213
C     -2.313922   -0.620503    0.951357
O     -0.697117    1.857602    0.991297
O      0.254861    2.329665    1.775360
H      1.333682   -1.755691   -0.424755
H      3.050304   -1.491169   -0.901183
H      2.458771   -0.842429    0.670629
H      2.416377    0.574987   -1.903211
H      0.580005    1.926724   -1.260172
H      0.311036    0.055701    1.202540
H     -0.981200   -1.035332   -0.688030
H     -1.937562    0.476115   -0.874667
H     -2.760456    0.245681    1.484023
H     -1.769613   -1.258873    1.679499
H     -3.134181   -1.218066    0.500725
19

C      2.334798   -0.628331   -0.583385
C      1.960493    0.825095   -0.537427
C      0.906437    1.305076    0.146096
C     -0.067901    0.448924    0.917630
C     -1.210556   -0.045874    0.016896
C     -2.141195   -0.970988    0.808867
O     -1.935237    1.064873   -0.460075
O     -2.555440    0.669286   -1.556546
H      1.511121   -1.228931   -1.019805
H      3.236670   -0.758579   -1.217300
H      2.569364   -0.996032    0.437343
H      2.589819    1.528923   -1.074450
H      0.731815    2.377153    0.132009
H      0.456806   -0.407919    1.391978
H     -0.494287    1.063211    1.740614
H     -0.765642   -0.627733   -0.824445
H     -2.600977   -0.423666    1.659557
H     -1.575283   -1.842921    1.201051
H     -2.950806   -1.351568    0.151004
17

C      3.158869    0.378343    0.306479
C      1.766071    0.051452    0.001967
C      0.617695   -0.217429   -0.247921
C     -0.786909   -0.544634   -0.552644
C     -1.641816   -0.479438    0.722372
C     -1.779226    0.944369    1.264702
O     -0.860769   -1.848046   -1.078329
O     -0.497627   -1.765570   -2.345535
H      3.631044    0.848303   -0.580663
H      3.707542   -0.549329    0.569567
H      3.194453    1.084126    1.161738
H     -1.186281    0.200066   -1.281461
H     -2.659993   -0.862123    0.491472
H     -1.206074   -1.134072    1.509471
H     -2.442176    0.938723    2.155424
H     -0.788991    1.345439    1.567437
H     -2.225813    1.609821    0.495597
17

C      3.599320   -0.049835    0.159088
C      2.174439    0.271013    0.077820
C      0.999914    0.534559    0.011284
C     -0.430879    0.854571   -0.069110
C     -1.285447   -0.356934    0.328283
C     -2.772738   -0.030633    0.153111
O     -1.024991   -0.686279    1.673809
O     -1.367321   -1.952379    1.825694
H      3.734258   -0.992240    0.728765
H      4.135188    0.773639    0.674437
H      4.009432   -0.174481   -0.864202
H     -0.644651    1.712270    0.604411
H     -0.662053    1.157741   -1.112839
H     -1.022787   -1.201600   -0.354661
H     -3.390289   -0.917127    0.409758
H     -3.065949    0.811791    0.815709
H     -2.985444    0.245924   -0.901685
19

C      2.606859    0.290482    0.656059
C      1.898819    0.721290   -0.625419
C      0.529353    0.108717   -0.725529
C     -0.476512    0.501419    0.071527
C     -1.858089   -0.097933   -0.046944
C     -1.859594   -1.530199    0.486875
O     -2.777104    0.659984    0.702871
O     -3.047585    1.736546   -0.012467
H      3.628940    0.723739    0.678637
H      2.688751   -0.816834    0.696731
H      2.051632    0.650032    1.548292
H      1.821283    1.829646   -0.660150
H      2.505415    0.391710   -1.496069
H      0.354071   -0.648852   -1.484639
H     -0.306052    1.287799    0.802608
H     -2.163154   -0.133312   -1.120494
H     -2.883501   -1.955130    0.417560
H     -1.176028   -2.170671   -0.110303
H     -1.537504   -1.548433    1.550463
19

C      2.209715   -0.347497    0.515154
C      1.119750    0.312684   -0.331620
O      1.564200    0.340938   -1.670534
O      1.294525    1.542868   -2.145767
C     -0.190155   -0.501837   -0.248726
C     -0.908609   -0.415608    1.099722
C     -2.106224    0.233996    0.422016
C     -1.388576    0.171937   -0.918657
H      2.398336   -1.385587    0.166353
H      1.916552   -0.373536    1.585687
H      3.152990    0.232504    0.428331
H      0.954141    1.337218    0.086352
H     -0.065677   -1.554434   -0.590410
H     -1.149587   -1.418061    1.516039
H     -0.427563    0.267301    1.834053
H     -2.277876    1.277276    0.766690
H     -3.013404   -0.408484    0.450824
H     -1.901909   -0.498054   -1.642560
H     -1.180631    1.186376   -1.322949
19

C      2.461317   -0.548334   -0.144074
C      1.346811    0.468182    0.089003
C     -0.010943   -0.066444   -0.399765
C     -0.645149   -1.104608    0.527808
C     -1.804057   -0.155706    0.801992
C     -1.172136    0.889231   -0.115541
O     -1.939179    1.113135   -1.271202
O     -2.877909    1.970365   -0.919130
H      2.542307   -0.790205   -1.225236
H      3.428530   -0.123522    0.197822
H      2.263401   -1.480666    0.425670
H      1.302681    0.724237    1.170773
H      1.590690    1.395464   -0.473135
H      0.016540   -0.406668   -1.460096
H     -0.967252   -2.017636   -0.018946
H     -0.054972   -1.321718    1.445406
H     -1.836397    0.178678    1.861876
H     -2.773610   -0.549668    0.424794
H     -0.870674    1.825883    0.411592
19

C      2.414863    0.154476    0.295119
C      1.077950    0.664773   -0.236533
C     -0.101455    0.111238    0.588280
C     -0.419699   -1.358064    0.305563
C     -1.808567   -0.968269   -0.183066
C     -1.502890    0.500391    0.091376
O     -1.502894    1.247215   -1.100923
O     -1.488187    2.514152   -0.733897
H      2.467928   -0.952033    0.219002
H      3.242763    0.589857   -0.303149
H      2.547739    0.455148    1.356212
H      1.076786    1.773805   -0.170075
H      0.979080    0.380801   -1.307438
H      0.010077    0.312985    1.677405
H      0.194228   -1.813113   -0.502836
H     -0.453666   -1.969302    1.233789
H     -2.614580   -1.364627    0.472581
H     -1.957204   -1.195907   -1.261913
H     -2.162273    0.916475    0.890112
19

C     -2.439512   -0.100827    0.729443
C     -1.390146   -0.599002   -0.260562
C     -0.222050    0.394712   -0.385252
C      0.752894    0.370591    0.792884
C      1.863564   -0.109786   -0.138614
O      2.876464    0.849708   -0.301083
O      3.677538    0.703994    0.736602
C      0.890697   -0.093038   -1.312856
H     -2.840776    0.882348    0.403343
H     -3.277646   -0.827425    0.778900
H     -1.999835    0.001638    1.743966
H     -1.023757   -1.598257    0.063389
H     -1.870116   -0.715810   -1.256201
H     -0.553432    1.425773   -0.643412
H      0.935341    1.386570    1.207332
H      0.509177   -0.385581    1.571236
H      2.239914   -1.134685    0.089388
H      1.151866    0.659758   -2.089281
H      0.719817   -1.110682   -1.729223
19

C     -2.310093    0.401885   -0.885772
C     -1.174762   -0.588247   -0.640469
C     -0.332019   -0.182395    0.581317
C      0.859686   -1.107725    0.826748
C      1.815130    0.054199    0.576500
O      2.581803   -0.157117   -0.581394
O      3.399848    0.874356   -0.662565
C      0.627517    0.980581    0.324346
H     -2.911296    0.068567   -1.757731
H     -1.905165    1.413144   -1.101188
H     -2.973724    0.455093    0.003467
H     -1.614650   -1.592127   -0.455949
H     -0.540070   -0.653692   -1.551858
H     -0.941299   -0.038199    1.501924
H      0.960318   -1.927603    0.080384
H      0.902451   -1.466140    1.878543
H      2.416427    0.315701    1.478758
H      0.543680    1.772646    1.099909
H      0.596218    1.377070   -0.714971
17

C      2.312220    0.912643    0.180252
C      1.484241   -0.091156    0.479750
C      0.269918   -0.374079   -0.370657
C     -0.625162   -1.484703    0.179619
C     -1.750313   -0.478830    0.386185
C     -0.861849    0.635961   -0.155838
O     -1.362559    1.136891   -1.368760
O     -0.557614    2.125163   -1.707717
H      3.186643    1.097902    0.795525
H      2.125406    1.553463   -0.676114
H      1.711400   -0.717353    1.337746
H      0.525052   -0.536137   -1.442320
H     -0.280314   -1.930539    1.138610
H     -0.877632   -2.243564   -0.593042
H     -2.635098   -0.693119   -0.253372
H     -1.998625   -0.337435    1.460898
H     -0.665717    1.424893    0.609235
17

C      2.510857    0.061136   -0.450151
C      1.409255   -0.671882   -0.270810
C      0.293361   -0.187217    0.626798
C     -0.911837   -1.126904    0.678799
C     -1.798621   -0.028290    0.106730
C     -0.597812    0.912795    0.033963
O     -0.264814    1.238689   -1.293508
O     -1.070389    2.226039   -1.634126
H      3.309349   -0.304322   -1.087599
H      2.622343    1.026896    0.033713
H      1.338476   -1.638158   -0.761862
H      0.655774    0.068908    1.647697
H     -1.193987   -1.395937    1.720256
H     -0.846434   -2.005051   -0.000874
H     -2.213750   -0.294991   -0.890343
H     -2.564661    0.320352    0.833276
H     -0.677111    1.797936    0.708042
17

C      2.656264   -0.636612    0.223508
C      1.413775   -0.960882   -0.142516
C      0.414406    0.105610   -0.519483
C     -0.992956   -0.427797   -0.787724
C     -1.519354    0.367094    0.405628
O     -2.385171    1.402856    0.017528
O     -3.568899    0.841577   -0.135748
C     -0.114228    0.892739    0.679336
H      3.367380   -1.414438    0.482012
H      2.970951    0.401755    0.268732
H      1.138474   -2.010732   -0.186052
H      0.776638    0.765020   -1.339729
H     -1.109874   -1.523665   -0.638187
H     -1.397063   -0.073457   -1.761736
H     -1.909154   -0.263521    1.238978
H      0.278265    0.542693    1.660210
H     -0.019454    1.991758    0.535243
17

C      2.528866   -0.845809    0.292289
C      1.304863   -0.962052   -0.228482
C      0.473593    0.260584   -0.532868
C     -0.945286   -0.055197   -1.006514
C     -1.510344    0.622966    0.240031
O     -2.149774   -0.286650    1.098486
O     -3.371264   -0.430787    0.622118
C     -0.095158    0.932198    0.716822
H      3.119208   -1.733049    0.496799
H      2.948098    0.130134    0.518234
H      0.923128   -1.954448   -0.450510
H      0.992385    0.977335   -1.208109
H     -1.186212   -1.140279   -1.059843
H     -1.209584    0.496603   -1.934875
H     -2.102487    1.544882    0.031447
H      0.167888    0.419080    1.669405
H      0.112082    2.024489    0.735567
15

C      2.909103   -0.449537    0.430187
C      1.797008   -0.340264   -0.022350
C      0.438834   -0.206601   -0.575850
C     -0.540117   -1.225573    0.002884
C     -1.339410   -0.097274    0.642322
C     -0.358581    0.925823    0.071236
O     -0.954867    1.744251   -0.902691
O     -1.581887    2.695644   -0.238050
H      3.885155   -0.545438    0.827676
H      0.432104   -0.184408   -1.688095
H     -1.116256   -1.752623   -0.788856
H     -0.098104   -1.911289    0.760483
H     -2.365624   -0.012024    0.221357
H     -1.310673   -0.134244    1.753203
H      0.203314    1.493555    0.851854
15

C      2.647701   -0.809724   -0.712800
C      1.735722   -0.312138   -0.100987
C      0.620969    0.296859    0.649113
C     -0.359109   -0.738443    1.196226
C     -1.471565   -0.142983    0.341757
C     -0.496394    0.892035   -0.216667
O     -0.278950    0.724429   -1.596830
O     -1.288053    1.327208   -2.195372
H      3.447937   -1.246579   -1.250044
H      0.976264    1.001882    1.432196
H     -0.126444   -1.788851    0.909769
H     -0.547844   -0.607793    2.284297
H     -2.275531    0.320874    0.953886
H     -1.845402   -0.857616   -0.424492
H     -0.739297    1.940840    0.075258
15

C      2.824184   -0.994275    0.631946
C      1.884182   -0.440297    0.119118
C      0.736411    0.236620   -0.507825
C     -0.468893   -0.681506   -0.694298
C     -1.269905    0.175845    0.284278
O     -2.329588    0.852644   -0.341888
O     -3.322199   -0.013876   -0.401886
C     -0.063231    1.089682    0.474300
H      3.649118   -1.480636    1.082297
H      1.013242    0.784752   -1.434827
H     -0.319324   -1.717219   -0.314783
H     -0.865440   -0.646618   -1.733074
H     -1.558515   -0.351499    1.223788
H      0.320445    1.064751    1.519133
H     -0.230488    2.121633    0.093723
15

C      2.790721   -0.861811   -0.425314
C      1.845484   -0.158519   -0.169620
C      0.691120    0.700899    0.142736
C     -0.436897    0.577835   -0.878530
C     -1.346390   -0.008072    0.200303
O     -1.669749   -1.352416   -0.047348
O     -2.683536   -1.327470   -0.890760
C     -0.217139    0.110815    1.219095
H      3.620231   -1.479385   -0.649789
H      0.981255    1.754741    0.346787
H     -0.227479   -0.133191   -1.709840
H     -0.794255    1.570448   -1.229468
H     -2.223684    0.631108    0.456987
H     -0.451065    0.848068    2.018021
H      0.121383   -0.873050    1.616740
19

C      2.075440    0.575256    0.886666
C      1.387061   -0.165678   -0.263193
C      0.059730   -0.806357    0.192484
C     -1.004137    0.253409    0.525531
C     -1.803689    0.776573   -0.658094
C     -2.444787   -0.193020    0.322982
O      2.262510   -1.167924   -0.725447
O      1.925457   -1.417915   -1.977523
H      1.466212    1.440750    1.220156
H      3.058906    0.962750    0.545291
H      2.244105   -0.107528    1.746803
H      1.184267    0.584380   -1.065824
H     -0.303173   -1.487616   -0.608968
H      0.233530   -1.432517    1.094087
H     -0.857410    0.960067    1.369528
H     -1.561496    0.329282   -1.646024
H     -2.149280    1.826102   -0.548438
H     -2.595806   -1.214104   -0.088123
H     -3.177440    0.284088    1.007715
19

C      2.301986    0.342128    0.227957
C      1.206608    0.224890   -0.834495
C      0.001142   -0.630364   -0.387372
O      0.423361   -1.900698    0.051412
O      0.679549   -2.610452   -1.032211
C     -0.756676    0.054354    0.765218
C     -1.774979    1.108992    0.356900
C     -2.245313   -0.256097    0.835290
H      3.155051    0.919597   -0.186411
H      2.671292   -0.662252    0.523860
H      1.926353    0.877492    1.124205
H      0.857622    1.244160   -1.109249
H      1.650306   -0.226198   -1.748378
H     -0.682274   -0.733751   -1.265856
H     -0.272772    0.199148    1.754570
H     -1.897727    1.274089   -0.734958
H     -1.915315    1.921555    1.100543
H     -2.656858   -0.898777    0.027788
H     -2.671357   -0.247817    1.860797
19

C      2.690495    0.469952    0.692326
C      1.312263    0.727484    0.090337
C      0.516979   -0.573199   -0.050250
C     -0.852635   -0.291508   -0.679055
C     -1.923386   -1.336788   -0.391015
C     -1.966076    0.012100    0.312399
O     -2.964794    0.846601   -0.200444
O     -2.615128    2.063081    0.165530
H      3.273479   -0.216417    0.041896
H      3.242443    1.429351    0.780967
H      2.592192    0.022084    1.704156
H      0.758506    1.434186    0.746467
H      1.438065    1.199783   -0.908514
H      1.067164   -1.273620   -0.714957
H      0.415480   -1.054271    0.948699
H     -0.925211    0.197007   -1.674979
H     -2.667527   -1.463329   -1.206298
H     -1.615002   -2.179982    0.263513
H     -1.777307   -0.012515    1.408834
19

C      2.524799    1.054565   -0.079339
C      1.020620    1.086035    0.175000
C      0.482382   -0.312265    0.490205
C     -1.028437   -0.252571    0.766227
C     -1.749237   -1.586727    0.614716
C     -1.986119   -0.478549   -0.401438
O     -1.388201   -0.760584   -1.636250
O     -1.471394    0.360891   -2.322632
H      2.755674    0.401432   -0.947802
H      2.885752    2.080914   -0.301302
H      3.059994    0.675970    0.817475
H      0.814073    1.767763    1.028898
H      0.511912    1.489643   -0.726857
H      0.727752   -1.004701   -0.344917
H      0.983076   -0.698709    1.404119
H     -1.412458    0.381172    1.594005
H     -2.589719   -1.732960    1.325618
H     -1.134635   -2.436726    0.245997
H     -3.005834   -0.034593   -0.372113
17

C      1.534166    1.799607    0.067701
C      1.238430    0.830589    0.939384
C      0.547332   -0.440802    0.510018
O      0.568351   -1.372246    1.565190
O      1.781561   -1.893738    1.584107
C     -0.921090   -0.132609    0.176822
C     -1.627748   -1.210399   -0.632826
C     -1.246775    0.105818   -1.291360
H      1.277819    1.705719   -0.982730
H      2.042550    2.696744    0.405534
H      1.529099    0.954958    1.978896
H      1.070109   -0.858162   -0.385620
H     -1.568028    0.387192    0.916287
H     -1.003876   -2.071700   -0.955364
H     -2.713752   -1.308798   -0.422620
H     -2.106508    0.786416   -1.466122
H     -0.401641    0.021409   -2.007296
17

C      2.522480   -0.536329    0.542766
C      1.754040   -0.664199   -0.542918
C      0.499269    0.141574   -0.723053
C     -0.587961   -0.330598    0.249305
C     -0.746786    0.484105    1.528086
C     -1.748374    0.642774    0.394434
O     -2.971699    0.027621    0.681399
O     -3.561040   -0.123295   -0.487280
H      3.429852   -1.123804    0.637559
H      2.257034    0.152530    1.338564
H      2.058598   -1.349047   -1.328908
H      0.730486    1.223859   -0.606448
H      0.126109   -0.011129   -1.757966
H     -0.863037   -1.406272    0.306941
H     -1.109506   -0.104607    2.397558
H     -0.054426    1.344825    1.645043
H     -1.735037    1.631993   -0.115408
17

C      2.168934    1.210382   -0.319316
C      1.807488    0.067579    0.271019
C      0.641395   -0.745690   -0.214992
C     -0.454466   -0.773812    0.859635
C     -1.849225   -1.092431    0.334227
C     -1.525951    0.312978    0.821373
O     -1.428004    1.227834   -0.234571
O     -0.917702    2.317619    0.301887
H      3.009927    1.777102    0.066668
H      1.634044    1.590590   -1.184240
H      2.359048   -0.274831    1.141871
H      0.266795   -0.367071   -1.192026
H      0.990169   -1.786197   -0.382944
H     -0.233140   -1.199132    1.861958
H     -1.947412   -1.194515   -0.768474
H     -2.477066   -1.679137    1.037584
H     -2.044833    0.608731    1.760015
15

C      2.701490    0.661432    1.029868
C      1.655702    0.695369    0.430837
C      0.379647    0.737633   -0.298727
O      0.603635    1.161605   -1.621095
O      0.733354    2.475334   -1.580031
C     -0.210800   -0.677521   -0.335827
C     -1.104289   -1.055868    0.837020
C     -1.720207   -0.741554   -0.517921
H      3.619366    0.631468    1.555687
H     -0.311014    1.435431    0.233355
H      0.354872   -1.511974   -0.804462
H     -1.097556   -2.137394    1.088621
H     -1.269299   -0.268482    1.603361
H     -2.080985   -1.637858   -1.065340
H     -2.253915    0.232379   -0.555347
15

C      2.960476   -1.183841   -0.078768
C      1.755870   -1.231488   -0.087290
C      0.291797   -1.289473   -0.096760
C     -0.275681    0.076223   -0.492584
C     -1.718446    0.313048   -0.061315
C     -0.580122    1.020336    0.660756
O     -0.436378    2.364858    0.300614
O     -1.126609    3.037249    1.199350
H      4.017881   -1.141753   -0.071286
H     -0.031229   -2.044100   -0.843751
H     -0.059683   -1.616024    0.906212
H     -0.000317    0.538509   -1.465743
H     -2.303558    0.961951   -0.747422
H     -2.191608   -0.494770    0.536795
H     -0.302391    0.689275    1.686503
15

C      2.779152    1.175060    0.132638
C      1.934498    0.339018   -0.069654
C      0.907021   -0.676109   -0.316539
C     -0.235417   -0.513150    0.694394
C     -1.578749   -1.062012    0.228189
C     -1.373056    0.442007    0.340786
O     -1.282434    1.058692   -0.913400
O     -0.792452    2.257528   -0.671245
H      3.520286    1.909251    0.310319
H      0.563796   -0.592952   -1.369882
H      1.360706   -1.680049   -0.182502
H     -0.035362   -0.644078    1.779537
H     -1.615022   -1.452866   -0.811984
H     -2.200610   -1.493100    1.040937
H     -1.952358    0.932760    1.153716
17

C      2.657712    0.957132   -0.203076
C      1.199502    0.662550   -0.370485
C      0.662021   -0.459433    0.123418
C     -0.795776   -0.759297   -0.068112
C     -1.469303   -1.447785    1.111886
C     -1.708171    0.031610    0.857271
O     -2.977509    0.278765    0.323652
O     -2.890729    1.473157   -0.225777
H      2.911427    1.012554    0.876642
H      2.900363    1.930063   -0.679263
H      3.263066    0.160523   -0.684909
H      0.575205    1.377661   -0.899875
H      1.289468   -1.183958    0.636163
H     -1.200438   -0.984014   -1.078277
H     -2.311253   -2.114918    0.828396
H     -0.817916   -1.655207    1.988168
H     -1.287667    0.720596    1.623854
17

C      2.319500   -0.611067    0.660447
C      1.856288    0.616810   -0.068186
C      0.588313    0.792206   -0.471782
C     -0.485692   -0.238216   -0.246672
C     -1.123550   -0.182452    1.136394
C     -1.884656    0.332105   -0.075066
O     -2.878907   -0.544346   -0.524263
O     -3.984823   -0.144086    0.069972
H      3.404934   -0.528851    0.877685
H      2.149038   -1.512533    0.035030
H      1.771977   -0.714420    1.620676
H      2.583001    1.395703   -0.279916
H      0.336311    1.700187   -1.012307
H     -0.404709   -1.249279   -0.700821
H     -1.469619   -1.165681    1.520441
H     -0.756938    0.622876    1.808751
H     -2.020469    1.431043   -0.190708
15

C      3.175109   -0.017556    0.269381
C      1.749341    0.023188   -0.055200
C      0.574091    0.056406   -0.321907
C     -0.856375    0.097268   -0.646744
C     -1.651160   -1.086768   -0.114489
C     -1.751286    0.267935    0.569190
O     -2.963126    0.910181    0.293220
O     -2.750793    2.178766    0.578755
H      3.400884    0.747311    1.040651
H      3.768697    0.192089   -0.644157
H      3.437346   -1.023055    0.658050
H     -1.208797    0.544871   -1.600258
H     -2.528215   -1.363109   -0.738080
H     -1.072181   -1.841712    0.460818
H     -1.323535    0.314182    1.596080
19

C     -2.012293    0.312263   -1.176804
C     -1.701313    0.524979    0.309502
C     -1.210127   -0.704281    1.069484
C     -0.244159    0.438316    0.769464
C      0.840561    0.137333   -0.280432
C      2.163730   -0.193223    0.405054
O      3.139745   -0.450357   -0.569228
O      4.245068   -0.730459    0.094119
H     -1.638074   -0.656849   -1.567150
H     -1.572025    1.141017   -1.769396
H     -3.112852    0.329688   -1.317153
H     -2.331338    1.226270    0.897183
H     -1.067449   -1.629416    0.471005
H     -1.542333   -0.743476    2.128169
H      0.000875    1.091875    1.634496
H      0.565933   -0.712858   -0.940484
H      0.977590    1.039116   -0.915026
H      2.023417   -1.090639    1.050548
H      2.475043    0.670702    1.036261
19

C      1.785364    0.296983   -0.796211
C      1.393446   -0.749496    0.252805
C      0.807389   -0.153843    1.525983
C     -0.078637   -1.007867    0.612726
C     -1.224685   -0.341582   -0.202284
C     -1.663085    1.041073    0.307925
O     -0.894801   -0.295350   -1.571392
O     -2.033241   -0.233189   -2.237881
H      1.117464    1.180659   -0.808237
H      1.781970   -0.173861   -1.800934
H      2.815611    0.649758   -0.582501
H      2.087802   -1.597488    0.434747
H      0.683964    0.947835    1.508345
H      1.143787   -0.672076    2.448690
H     -0.260109   -2.036207    0.993594
H     -2.098675   -1.020091   -0.053685
H     -1.830694    1.011923    1.405628
H     -0.912525    1.819877    0.065767
H     -2.620343    1.332942   -0.173474
19

C      1.424170   -0.352085   -0.870969
C      1.086278    0.831487    0.048673
O      2.057250    0.915999    1.067693
O      3.095922    1.554324    0.559220
C     -0.310447    0.874886    0.732219
C     -0.678687   -0.363983    1.549559
C     -1.568315    0.064114    0.385580
C     -1.617737   -0.893364   -0.805355
H      2.470791   -0.251981   -1.228352
H      0.792489   -0.343943   -1.779628
H      1.357330   -1.322336   -0.341066
H      1.111636    1.747355   -0.589303
H     -0.524878    1.809829    1.294124
H     -0.066998   -1.273540    1.386858
H     -1.109372   -0.137571    2.547940
H     -2.519663    0.548043    0.694677
H     -0.886204   -1.722571   -0.738789
H     -1.489565   -0.324339   -1.748778
H     -2.623999   -1.360324   -0.834690
19

C      2.112110    0.346506   -1.039383
C      0.643993    0.610813   -0.718952
C      0.264662    0.040517    0.664041
O      1.084428    0.373639    1.752921
O      0.792624    1.626211    2.043351
C     -0.180245   -1.418655    0.684748
C     -1.179057   -0.312708    1.029668
C     -2.258843   -0.027552   -0.018760
H      2.768289    0.846735   -0.295882
H      2.315783   -0.745513   -1.033671
H      2.351052    0.747884   -2.046756
H      0.464690    1.706931   -0.716930
H      0.028847    0.169025   -1.530262
H     -0.307908   -1.896396   -0.310219
H      0.165907   -1.999484    1.566073
H     -1.430735   -0.212772    2.107402
H     -3.239523   -0.362450    0.377835
H     -2.083496   -0.557684   -0.978009
H     -2.312577    1.064955   -0.207603
19

C      2.292738   -0.931766    0.744413
C      1.505641    0.126119   -0.022009
C      0.001908   -0.195556   -0.052091
O     -0.418348   -1.324052   -0.778010
O     -0.348906   -2.340369    0.059424
C     -0.886621    0.258708    1.105785
C     -0.912015    1.021070   -0.218134
C     -2.196462    0.838201   -1.032808
H      3.357553   -0.624379    0.812684
H      2.245167   -1.908378    0.218539
H      1.888485   -1.043810    1.773057
H      1.688888    1.113143    0.456988
H      1.884230    0.178906   -1.065082
H     -1.758957   -0.399180    1.307918
H     -0.347053    0.781245    1.923894
H     -0.438727    2.025776   -0.176964
H     -2.924464    1.623490   -0.741632
H     -1.962102    0.954966   -2.111138
H     -2.670955   -0.154133   -0.875223
19

C      2.538597    0.237744    0.029964
C      1.135014    0.258280   -0.563317
C      0.099123    0.571095    0.530126
C     -1.385800    0.379896    0.198571
C     -1.764121   -0.125211   -1.197777
C     -0.659888   -0.632178    1.081561
O     -0.948797   -0.493786    2.443418
O     -1.940631   -1.330928    2.670538
H      2.782337    1.223902    0.479851
H      3.278120    0.019530   -0.769154
H      2.613184   -0.549904    0.809967
H      0.951611   -0.720916   -1.054194
H      1.085422    1.051305   -1.339564
H      0.299705    1.396137    1.248266
H     -2.072113    1.078808    0.723506
H     -1.281467   -1.091252   -1.454771
H     -2.862738   -0.275856   -1.237487
H     -1.488546    0.637360   -1.955611
H     -0.379011   -1.634027    0.685718
19

C      2.388892   -0.487551   -0.072373
C      1.046234    0.092639   -0.500824
C      0.201640    0.452297    0.737878
C     -1.271660    0.826444    0.531334
C     -1.832279    0.830431   -0.899356
C     -0.904628   -0.516779    1.168952
O     -1.101005   -1.627762    0.337456
O     -0.424847   -2.606081    0.904716
H      2.948580    0.247849    0.544273
H      2.994200   -0.730491   -0.971093
H      2.235110   -1.417204    0.515851
H      0.552509   -0.638956   -1.171829
H      1.229713    1.020012   -1.084153
H      0.687593    1.008134    1.568503
H     -1.643097    1.596839    1.240255
H     -1.612181   -0.088713   -1.477169
H     -2.935264    0.939587   -0.847970
H     -1.422054    1.703545   -1.448018
H     -1.137456   -0.604239    2.253181
19

C      2.639199    0.253628    0.323031
C      1.271766    0.778622   -0.097805
C      0.157297   -0.108576    0.477717
C     -0.287478   -1.260533   -0.424460
C     -1.200329   -0.055406   -0.222095
C     -2.471941   -0.331093    0.585286
O     -1.312418    0.737199   -1.375021
O     -1.520246    1.965065   -0.941773
H      2.722862    0.239379    1.430764
H      2.792915   -0.774136   -0.069674
H      3.433503    0.913548   -0.085123
H      1.144363    1.808426    0.298450
H      1.235899    0.831009   -1.208040
H      0.130641   -0.320356    1.568577
H     -0.565637   -2.179334    0.134673
H      0.212647   -1.313076   -1.415656
H     -2.882279    0.624912    0.971252
H     -3.229599   -0.809196   -0.069993
H     -2.271164   -1.000085    1.449499
19

C     -2.115079   -0.867237   -0.342849
C     -1.190393    0.335487   -0.492155
C     -0.478805    0.636106    0.838396
C      0.690993    1.601446    0.691961
C      0.954981    0.148784    1.091207
C      1.601500   -0.795161    0.056339
O      2.152811   -0.088711   -1.025046
O      2.658036   -1.001276   -1.832631
H     -1.537358   -1.769683   -0.052749
H     -2.625515   -1.066506   -1.308597
H     -2.885994   -0.665289    0.431207
H     -1.804646    1.219727   -0.766396
H     -0.482893    0.155678   -1.328506
H     -1.096084    0.837273    1.740483
H      0.778671    2.324747    1.530000
H      0.925352    1.901478   -0.351210
H      1.185339   -0.011232    2.166263
H      0.857849   -1.543565   -0.294657
H      2.411238   -1.352068    0.578551
19

C     -2.801193   -0.270383   -0.036010
C     -1.475358    0.463353   -0.236544
C     -0.737888    0.819874    1.049634
C     -0.231032   -0.318375    0.168639
C      1.023662   -0.004261   -0.656477
C      2.283472   -0.334709    0.139480
O      3.413202   -0.061304   -0.645825
O      4.454803   -0.366566    0.103919
H     -2.773296   -0.971544    0.826208
H     -3.039360   -0.846563   -0.953966
H     -3.606620    0.473333    0.136234
H     -1.371668    1.201735   -1.060756
H     -0.157775    1.765756    0.994714
H     -1.216531    0.481213    1.993297
H     -0.391687   -1.344048    0.566657
H      1.001258   -0.625360   -1.577514
H      1.056842    1.064394   -0.965968
H      2.266409   -1.413092    0.419654
H      2.302760    0.286546    1.064235
19

C      2.643471    0.173853   -0.192828
C      1.287172   -0.530691   -0.174758
C      0.678816   -0.719118    1.210665
C      0.110482    0.334714    0.263397
C     -1.232504   -0.016669   -0.394942
C     -2.376782    0.433350    0.517378
O     -1.307388    0.659947   -1.627129
O     -2.215809    0.031007   -2.350190
H      2.723252    0.963291    0.585766
H      2.796522    0.640492   -1.187895
H      3.445023   -0.574783   -0.023760
H      1.080085   -1.348968   -0.897843
H      0.075256   -1.645246    1.320614
H      1.261783   -0.297775    2.057364
H      0.338039    1.390285    0.529481
H     -1.308666   -1.121951   -0.543267
H     -2.300684   -0.070072    1.504895
H     -2.343589    1.533864    0.667921
H     -3.354480    0.164471    0.064743
19

C      2.344849    0.454007   -0.476160
C      1.253969   -0.608048   -0.540084
C     -0.133003    0.047476   -0.455342
C     -0.736141    0.117922    0.946533
C     -1.599498    1.350554    1.211185
C     -1.304992   -0.861160   -0.075407
O     -0.968230   -2.188504    0.218762
O     -1.178723   -2.852126   -0.899916
H      2.233518    1.172601   -1.316134
H      3.341322   -0.030040   -0.551854
H      2.287686    1.004420    0.487239
H      1.423222   -1.340591    0.279363
H      1.332949   -1.148835   -1.507130
H     -0.398261    0.860207   -1.165985
H     -0.144040   -0.326082    1.776283
H     -2.151923    1.684302    0.305986
H     -2.333943    1.115766    2.009231
H     -0.950165    2.181055    1.557738
H     -2.318597   -0.632926   -0.474697
19

C     -2.801616   -0.144922    0.320332
C     -1.544835    0.710111    0.210076
C     -0.290080   -0.156073    0.376697
C      0.260163   -0.765726   -0.909425
C      0.971972    0.416317   -0.259216
C      2.278103    0.073450    0.460450
O      3.330376    0.107362   -0.465610
O      4.424901   -0.153924    0.222934
H     -2.837942   -0.651495    1.308464
H     -2.817193   -0.910141   -0.484869
H     -3.700375    0.498942    0.217277
H     -1.556075    1.474164    1.016220
H     -1.554699    1.243656   -0.766294
H     -0.155643   -0.767584    1.295508
H      0.740953   -1.757480   -0.769931
H     -0.291546   -0.508840   -1.838845
H      0.875375    1.383964   -0.797887
H      2.225964   -0.930752    0.942236
H      2.442198    0.838969    1.251493
17

C     -1.972766    0.300788    0.802914
C     -1.482579    0.366495   -0.648410
C     -0.524060   -0.746189   -1.052303
C     -0.009407    0.684979   -0.912539
C      0.888966    0.903988    0.272034
C      2.113901    0.386284    0.308066
O      2.940784    0.633223    1.398469
O      4.174095    0.114577    1.442117
H     -2.142457    1.331517    1.177431
H     -1.258572   -0.215275    1.479546
H     -2.936466   -0.248469    0.833036
H     -2.186722    0.689215   -1.444466
H     -0.640806   -1.082896   -2.103979
H     -0.223462   -1.448771   -0.244413
H      0.231226    1.176513   -1.879054
H      0.555774    1.542994    1.080552
H      2.472551   -0.229299   -0.508999
17

C      1.454297    1.530182    0.329552
C      1.215562    0.245391    0.584287
O      1.590478   -0.272213    1.826275
O      1.543852   -1.586711    2.081082
C      0.625490   -0.641578   -0.487004
C     -0.547830   -1.512478   -0.040207
C     -0.795628   -0.343552   -0.981895
C     -1.593349    0.805348   -0.353018
H      1.900084    2.163619    1.085645
H      1.216018    1.961224   -0.634882
H      1.304720   -1.124137   -1.221145
H     -0.896689   -1.367260    1.005380
H     -0.588368   -2.505738   -0.534992
H     -1.012603   -0.639916   -2.030130
H     -2.677067    0.601164   -0.476649
H     -1.386397    0.936657    0.730424
H     -1.352572    1.749999   -0.882724
17

C      0.854814    1.957561    1.555221
C      0.970683    0.687741    1.161052
C     -0.202790   -0.256310    1.233836
C     -0.390920   -1.260326    0.090023
C      0.622895   -1.267093   -1.064122
C     -1.312669   -0.044972    0.198341
O     -1.059198    0.989722   -0.714150
O     -1.901506    0.786712   -1.706847
H     -0.097271    2.348668    1.901328
H      1.717757    2.614958    1.531243
H      1.943555    0.314577    0.856127
H     -0.564494   -0.586291    2.230717
H     -0.862755   -2.220925    0.386358
H      1.496701   -1.886105   -0.773297
H      0.984863   -0.256518   -1.345430
H      0.148706   -1.726174   -1.956124
H     -2.348371   -0.195225    0.575399
17

C     -2.091677    0.643519   -0.797525
C     -1.393426   -0.437723   -0.446915
C     -0.842800   -0.576261    0.946768
C      0.381446   -1.480076    1.058153
C      0.534327    0.027298    1.229298
C      1.266948    0.745305    0.087139
O      2.624659    0.855925    0.419539
O      3.185453    1.522810   -0.571059
H     -2.264785    1.448411   -0.089392
H     -2.492196    0.729521   -1.802297
H     -1.241508   -1.231729   -1.172441
H     -1.540389   -0.627037    1.809731
H      0.766093   -1.901031    0.103731
H      0.438547   -2.048439    2.010325
H      0.690022    0.368951    2.274969
H      1.160111    0.201931   -0.879613
H      0.819175    1.758625   -0.020738
17

C     -2.291030   -0.290998    0.338877
C     -0.889134   -0.342920   -0.267771
C     -0.670388    0.575410   -1.463151
C     -0.065648    0.929815   -0.108593
C      1.410404    0.693594   -0.001664
C      1.950699    0.280761    1.147513
O      3.324869    0.072065    1.290302
O      4.180618    0.272036    0.277869
H     -2.730236    0.729785    0.307869
H     -2.240891   -0.623401    1.396416
H     -2.955714   -0.981704   -0.220223
H     -0.336949   -1.307217   -0.306252
H      0.037290    0.170207   -2.218225
H     -1.537002    1.207786   -1.752007
H     -0.537180    1.776568    0.435317
H      2.037276    0.900494   -0.859919
H      1.313016    0.097394    2.003644
17

C      2.658954   -0.235876   -0.514813
C      1.393638   -0.657089   -0.554615
C      0.444748   -0.347516    0.570304
C     -1.017441   -0.233182    0.145100
C     -2.036101   -0.680985    1.191653
C     -0.237634    1.021097    0.520720
O      0.126326    1.803308   -0.583417
O     -0.836122    2.694959   -0.704803
H      3.023805    0.353233    0.321338
H      3.338361   -0.478891   -1.325246
H      1.057744   -1.257559   -1.395108
H      0.645477   -0.749422    1.586853
H     -1.248940   -0.349954   -0.936415
H     -2.219292   -1.769497    1.077930
H     -2.990592   -0.139794    1.025451
H     -1.691489   -0.484183    2.230172
H     -0.411440    1.511352    1.504571
17

C     -2.510665    0.843970   -0.447788
C     -1.928829   -0.329387   -0.192664
C     -0.692455   -0.405881    0.655282
C      0.295841   -1.490737    0.240606
C      0.589982   -0.030118   -0.078425
C      1.667716    0.623496    0.788933
O      2.923900    0.376221    0.217234
O      3.797967    0.997901    0.985260
H     -2.090482    1.769101   -0.064391
H     -3.414633    0.883466   -1.046727
H     -2.378705   -1.242176   -0.572267
H     -0.744356   -0.176948    1.741574
H      0.007647   -2.095130   -0.646373
H      0.872282   -1.926417    1.084512
H      0.495807    0.249722   -1.150609
H      1.640454    0.234641    1.833605
H      1.468530    1.718276    0.811914
15

C      0.615453   -1.921574   -1.592152
C      0.745048   -0.845231   -1.064543
C      0.907413    0.471733   -0.422791
C      0.350764    0.641264    0.995116
C     -0.298829   -0.572201    1.679515
C     -0.385021    1.260104   -0.194499
O     -1.568667    0.596065   -0.549786
O     -1.852697    1.024579   -1.763013
H      0.501019   -2.866379   -2.054782
H      1.792840    1.091033   -0.677059
H      0.906975    1.367931    1.624588
H      0.495210   -1.188655    2.149441
H     -0.880525   -1.216939    0.988678
H     -0.981843   -0.212244    2.476502
H     -0.347138    2.370514   -0.249905
15

C      1.919193    1.713505   -0.370852
C      1.455074    0.603674   -0.451823
C      0.891192   -0.752488   -0.553695
C      0.490044   -1.345185    0.792499
C     -0.589302   -0.940599   -0.210692
C     -1.429636    0.325229    0.064320
O     -0.987305    1.030190    1.196146
O     -1.775264    2.083440    1.295702
H      2.325707    2.687883   -0.299278
H      1.340499   -1.478616   -1.263532
H      0.652394   -2.441471    0.861584
H      0.648094   -0.686485    1.672712
H     -1.064657   -1.775905   -0.767909
H     -2.482907    0.000968    0.218732
H     -1.393127    0.975861   -0.838605
15

C      1.445328   -2.325189   -1.366435
C      1.195182   -1.374686   -0.668253
C      0.891550   -0.215724    0.185130
C     -0.599409   -0.031783    0.453895
C     -0.946756    0.557353    1.819944
C      0.126641    0.929112   -0.480341
O     -0.160564    0.716391   -1.835490
O     -1.156869    1.534505   -2.107846
H      1.664576   -3.159442   -1.979507
H      1.590483    0.064891    1.001669
H     -1.301636   -0.742195   -0.035952
H     -1.045862   -0.266705    2.556478
H     -1.917153    1.091197    1.750056
H     -0.174056    1.269258    2.183578
H      0.388546    1.953019   -0.131616
15

C      2.957318    1.153222    0.847013
C      2.000078    0.678469    0.288705
C      0.834372    0.101394   -0.392490
C      0.516722   -1.327642    0.031571
C     -0.347903   -0.174429    0.526925
C     -1.726046   -0.072430   -0.129819
O     -2.195352    1.242133    0.002311
O     -3.396134    1.252717   -0.543912
H      3.797511    1.569832    1.337339
H      0.626916    0.351258   -1.454903
H      0.074266   -1.952349   -0.773701
H      1.180472   -1.761197    0.811046
H     -0.228472    0.069871    1.605468
H     -2.409185   -0.775504    0.397363
H     -1.684565   -0.355344   -1.207605
19

C      0.524720    1.637849    0.803341
C      0.253219    0.525648   -0.215860
C      1.565496   -0.100872   -0.713685
O      2.262447   -0.697711    0.350101
O      3.360464   -1.203640   -0.177567
C     -0.653039   -0.551872    0.412200
C     -2.148434   -0.280578    0.327146
C     -1.515416   -1.334441   -0.567840
H      1.177897    2.417320    0.356223
H     -0.430652    2.118354    1.104233
H      1.019059    1.231388    1.711720
H     -0.247114    0.993327   -1.094320
H      1.327865   -0.863800   -1.490128
H      2.190856    0.692180   -1.184315
H     -0.322579   -1.113484    1.312663
H     -2.740517   -0.700924    1.167258
H     -2.451023    0.644418   -0.208872
H     -1.732186   -2.378204   -0.257067
H     -1.441063   -1.034958   -1.635230
19

C     -1.938431   -0.760853   -0.382428
C     -0.961522    0.042175    0.484501
C     -0.963411    1.523771    0.070208
C      0.424918   -0.658228    0.520381
C      1.191912   -0.700442   -0.800605
C      1.703733    0.157787    0.347230
O      2.799130   -0.410313    1.008971
O      3.862513    0.074961    0.400053
H     -1.962093   -1.821404   -0.051857
H     -1.639085   -0.724609   -1.451378
H     -2.965432   -0.347861   -0.287058
H     -1.350919    0.006920    1.525491
H     -2.001113    1.920318    0.087061
H     -0.558371    1.661054   -0.953521
H     -0.372256    2.126241    0.791322
H      0.517081   -1.599952    1.104227
H      1.767594   -1.635565   -0.969571
H      0.774422   -0.112020   -1.643099
H      1.671330    1.258019    0.200071
17

C     -1.011624   -1.658653    0.092826
C     -0.876475   -0.325815    0.130785
C     -1.868895    0.501231    0.901331
C      0.205426    0.345123   -0.678557
C      1.096434    1.312962    0.094821
C      1.622306   -0.058312   -0.288099
O      2.538581    0.002364   -1.343433
O      2.578472   -1.220554   -1.832079
H     -1.806281   -2.152882    0.643938
H     -0.329708   -2.270647   -0.490203
H     -2.899338    0.280807    0.550198
H     -1.792915    0.265237    1.983683
H     -1.678046    1.585760    0.758993
H      0.042646    0.569322   -1.754455
H      1.492146    2.153607   -0.514219
H      0.878271    1.418636    1.179238
H      1.809001   -0.748185    0.565229
17

O      2.705775    0.685308    1.305636
O      1.651094   -0.095484    1.159290
C      1.292525   -0.031563   -0.200952
C      0.587391    1.270693   -0.495459
C     -0.684015    1.437288   -0.111513
C     -1.379550    0.338206    0.642853
C     -1.092383   -1.040227    0.013266
C      0.352748   -1.207615   -0.534327
H      2.197263   -0.120222   -0.847838
H      1.085652    2.040723   -1.076358
H     -1.219590    2.344285   -0.374344
H     -1.013477    0.343577    1.692349
H     -2.474102    0.527484    0.662797
H     -1.293627   -1.825887    0.773620
H     -1.810898   -1.205784   -0.819441
H      0.793169   -2.152818   -0.148180
H      0.302024   -1.307965   -1.641400
17

O      3.005906    1.067637   -0.591500
O      2.127597    0.230491   -1.112278
C      1.152090    0.007226   -0.121722
C      0.399657   -1.294570   -0.453777
C     -0.761448   -1.462857    0.485968
C     -1.557638   -0.416269    0.731573
C     -1.306183    0.885355    0.020719
C      0.197524    1.237961   -0.004478
H      1.641481   -0.158785    0.869253
H      0.018840   -1.253506   -1.497805
H      1.084145   -2.165405   -0.364302
H     -0.908331   -2.398904    1.015924
H     -2.360125   -0.497907    1.458138
H     -1.881910    1.700681    0.508653
H     -1.671824    0.787375   -1.024602
H      0.447566    1.789954    0.928052
H      0.372655    1.941523   -0.847816
15

O      3.008915   -1.027010    0.072707
O      1.853716   -1.405032   -0.442715
C      0.860990   -0.641638    0.198773
C     -0.471400   -1.331375    0.031956
C     -1.612327   -0.634905    0.085417
C     -1.587407    0.836136    0.186506
C     -0.443243    1.507012    0.018744
C      0.812733    0.784682   -0.394504
H      1.055831   -0.575975    1.295878
H     -0.509930   -2.411112   -0.045223
H     -2.562891   -1.151464    0.051116
H     -2.502381    1.372703    0.402048
H     -0.435400    2.586415    0.102851
H      1.698620    1.365047   -0.059033
H      0.834175    0.726515   -1.504523
24

C      2.808448    0.700233   -0.418551
C      1.589129   -0.128977    0.004002
C      0.312665    0.743815   -0.057308
C     -1.049408   -0.017243    0.012273
C     -1.243266   -0.924119   -1.222769
C     -1.163258   -0.866619    1.295144
C     -2.181595    1.032742    0.023486
O      1.780036   -0.589489    1.321890
O      2.526163   -1.675867    1.239989
H      2.686431    1.064777   -1.460923
H      2.938669    1.571615    0.258553
H      3.726995    0.077441   -0.377570
H      1.489168   -0.973145   -0.714782
H      0.327342    1.331163   -1.003183
H      0.361485    1.485811    0.771418
H     -0.539846   -1.781861   -1.213403
H     -2.271725   -1.345684   -1.239448
H     -1.089216   -0.348630   -2.160862
H     -2.190493   -1.277659    1.402439
H     -0.466817   -1.730482    1.267138
H     -0.938466   -0.251695    2.193119
H     -3.178746    0.542658    0.062128
H     -2.091170    1.698696    0.908987
H     -2.142526    1.662518   -0.891769
24

C      2.344545    1.208075    0.513389
C      1.724253   -0.166117    0.256833
C      0.514431   -0.100962   -0.724125
O      0.636974   -1.130206   -1.683833
O      1.502109   -0.708775   -2.588692
C     -0.891106   -0.212427   -0.034112
C     -1.986617    0.008895   -1.102987
C     -1.111063   -1.608103    0.597097
C     -1.066129    0.870073    1.053710
H      3.198356    1.105186    1.215915
H      1.602487    1.900039    0.961019
H      2.721257    1.642437   -0.437071
H      1.452930   -0.619127    1.229899
H      2.521681   -0.813722   -0.168755
H      0.528075    0.890348   -1.242745
H     -1.876306    1.006998   -1.579619
H     -3.000207   -0.044762   -0.649321
H     -1.928833   -0.765011   -1.898287
H     -2.139959   -1.688665    1.010200
H     -0.407966   -1.801271    1.431752
H     -0.985798   -2.411600   -0.159506
H     -0.368806    0.709426    1.901836
H     -2.098033    0.847425    1.466512
H     -0.886275    1.881848    0.630891
24

C      1.520197   -1.032096    0.750940
C      0.832972    0.153789    0.036565
C      1.305959    0.201636   -1.437150
O      2.686586    0.457692   -1.486824
O      3.012611    0.442159   -2.765238
C     -0.740830    0.164529    0.201250
C     -1.130965    0.019473    1.692740
C     -1.419305   -0.976125   -0.592113
C     -1.320498    1.514447   -0.290490
H      1.366732   -0.982345    1.848020
H      1.149365   -2.004776    0.368845
H      2.618830   -0.999064    0.592659
H      1.221152    1.075191    0.527190
H      0.778497    1.007222   -1.987923
H      1.086115   -0.772484   -1.930545
H     -0.905022   -0.998948    2.073139
H     -2.221906    0.177386    1.837351
H     -0.588419    0.764739    2.313589
H     -2.518963   -0.959504   -0.429600
H     -1.047928   -1.970065   -0.269281
H     -1.245114   -0.867857   -1.682938
H     -0.797388    2.367496    0.192723
H     -1.240399    1.624239   -1.390774
H     -2.402279    1.593264   -0.046442
24

C     -2.521719    0.040393   -1.138004
C     -1.379350   -0.464472   -0.246234
C     -1.840670   -0.499541    1.218621
C     -0.127630    0.426658   -0.444660
C      1.129505   -0.007466    0.354927
C      1.584630   -1.426960   -0.021079
C      2.282596    0.985634    0.118418
O      1.929124    2.256122    0.600958
O      2.957529    3.040127    0.340117
H     -3.408011   -0.622688   -1.041485
H     -2.207927    0.037239   -2.203786
H     -2.814890    1.073988   -0.853363
H     -1.152009   -1.502132   -0.570436
H     -2.802749   -1.048113    1.307177
H     -1.100991   -1.034634    1.848797
H     -1.979996    0.530493    1.611366
H     -0.393776    1.468935   -0.160963
H      0.130778    0.441266   -1.527126
H      0.902125    0.008251    1.442373
H      2.543642   -1.673183    0.482766
H      1.726117   -1.515825   -1.119569
H      0.841485   -2.178844    0.314750
H      3.189981    0.628306    0.657703
H      2.512207    1.036446   -0.971266
22

C     -2.241837   -0.791375    0.725217
C     -1.552925    0.285402    0.318938
C     -2.151995    1.201277   -0.713530
C     -0.170575    0.566442    0.867537
C      0.942401    0.227289   -0.149273
C      2.289098    0.766181    0.356573
C      1.028750   -1.289965   -0.405011
O      1.998589   -1.556999   -1.384748
O      2.020895   -2.868848   -1.522420
H     -1.827007   -1.478144    1.456786
H     -3.229389   -1.001925    0.325382
H     -3.110725    1.616960   -0.337590
H     -1.468245    2.046354   -0.940202
H     -2.339817    0.638115   -1.652101
H      0.001738    0.007456    1.814649
H     -0.121541    1.646829    1.126320
H      0.716250    0.735467   -1.113194
H      2.570240    0.280392    1.315761
H      3.089675    0.577852   -0.389733
H      2.228272    1.864002    0.515753
H      1.286738   -1.812094    0.545349
H      0.041412   -1.660668   -0.760463
22

C     -2.325472    1.309344    0.933257
C     -1.423052    0.291223    0.284721
C     -1.938642   -1.106348    0.035166
C     -0.170890    0.667028   -0.059883
C      0.867646   -0.256624   -0.667139
C      1.740958    0.515168   -1.663942
C      1.724047   -0.902622    0.433920
O      2.391247    0.082888    1.180616
O      3.093106   -0.566935    2.089026
H     -2.461360    2.177318    0.253706
H     -3.326481    0.887439    1.160682
H     -1.871880    1.660564    1.884304
H     -1.288014   -1.850977    0.538513
H     -2.968184   -1.236681    0.428327
H     -1.964203   -1.310666   -1.055698
H      0.143370    1.683833    0.167264
H      0.374503   -1.068705   -1.242487
H      2.281563    1.346238   -1.161877
H      2.485295   -0.166213   -2.128695
H      1.108250    0.939776   -2.472712
H      1.065947   -1.504151    1.101030
H      2.462243   -1.590895   -0.038098
22

C      2.492425   -0.484526    0.084790
C      1.264417    0.029518   -0.672630
C      0.132976   -0.996758   -0.769859
C     -0.779426   -0.070499    0.048445
C     -2.011667    0.401338   -0.747391
C     -1.173084   -0.668440    1.409277
C      0.370800    0.955337    0.160736
O      0.126884    2.160984   -0.522032
O     -0.479953    2.950234    0.343491
H      3.000239   -1.266767   -0.517575
H      2.208090   -0.916699    1.068494
H      3.202644    0.352252    0.252001
H      1.530374    0.455153   -1.666396
H     -0.200500   -1.141594   -1.821378
H      0.360098   -1.962981   -0.265528
H     -2.556168    1.185860   -0.180584
H     -1.718689    0.814201   -1.736697
H     -2.700668   -0.452776   -0.919539
H     -0.278589   -1.024788    1.964428
H     -1.685960    0.099748    2.026144
H     -1.860545   -1.528680    1.263544
H      0.756303    1.109882    1.198258
22

C      2.280606    1.045130   -0.308104
C      1.494457   -0.249314   -0.081927
C      0.484971   -0.171700    1.066140
C     -0.658023   -0.431609    0.071540
C     -1.343446   -1.790422    0.300639
C     -1.687545    0.716976   -0.026281
O     -1.054078    1.953445   -0.235367
O     -2.021431    2.847797   -0.301728
C      0.356998   -0.469392   -1.082377
H      1.605227    1.922747   -0.389456
H      2.978497    1.208061    0.539787
H      2.872245    0.960957   -1.243730
H      2.158074   -1.138695    0.001775
H      0.634648   -0.990881    1.803962
H      0.439025    0.827253    1.554106
H     -0.595439   -2.609962    0.369625
H     -2.033153   -2.015512   -0.540475
H     -1.926741   -1.768034    1.245680
H     -2.381462    0.502278   -0.870965
H     -2.274756    0.750444    0.919852
H      0.238413    0.360583   -1.813957
H      0.432914   -1.460148   -1.582859
22

C      2.535746    0.744620    0.368818
C      1.309435    0.641404   -0.542507
C      0.737835   -0.773869   -0.645274
C     -0.567015   -0.290858    0.006740
C     -0.826246   -0.943646    1.376618
C     -1.782209   -0.384887   -0.937977
O     -2.876712    0.293177   -0.378142
O     -3.868281    0.146945   -1.235785
C      0.015048    1.126943    0.112508
H      2.796615    1.812958    0.521025
H      2.343293    0.277083    1.358575
H      3.397527    0.232783   -0.108594
H      1.478590    1.103558   -1.540498
H      0.619350   -1.094398   -1.704029
H      1.292333   -1.525393   -0.039284
H     -1.087594   -2.014905    1.243594
H     -1.665158   -0.431438    1.893356
H      0.073177   -0.879535    2.026327
H     -2.034840   -1.458911   -1.092100
H     -1.527672    0.063391   -1.926593
H      0.147640    1.479770    1.160023
H     -0.510864    1.875208   -0.520921
22

C     -1.619698   -1.490964   -0.102261
C     -0.937467   -0.111630   -0.074740
C     -1.684913    1.003637    0.678643
C     -0.219153    0.305452   -1.366002
C      0.607769   -0.056348   -0.125803
C      1.371288   -1.393636   -0.185196
C      1.333918    1.122464    0.554569
O      2.573771    1.331986   -0.069110
O      3.163871    2.295010    0.612830
H     -1.488783   -1.985365    0.882802
H     -2.706206   -1.370061   -0.294709
H     -1.223500   -2.156298   -0.895845
H     -1.492177    2.011157    0.255536
H     -1.388683    0.991083    1.748367
H     -2.780749    0.836513    0.620679
H     -0.251133    1.388880   -1.609666
H     -0.216168   -0.450580   -2.179785
H      1.250764   -1.928541    0.779837
H      2.453572   -1.212628   -0.349207
H      1.027213   -2.051288   -1.009252
H      1.483328    0.859559    1.626081
H      0.743139    2.061598    0.502232
24

C     -1.945372    1.201167    0.485215
C     -1.054909    0.769961   -0.689779
C     -0.054594   -0.409669   -0.411921
C     -0.637145   -1.433709    0.596248
C      0.154040   -1.159916   -1.752242
C      1.353577    0.113807    0.052491
C      1.323459    1.024413    1.290970
O      2.203078   -0.984796    0.311596
O      3.439275   -0.578141    0.085805
H     -2.493941    2.126116    0.208346
H     -2.698430    0.416366    0.708086
H     -1.363093    1.408715    1.402128
H     -0.494605    1.657425   -1.056763
H     -1.752601    0.494649   -1.511865
H     -1.625707   -1.801405    0.245779
H     -0.772875   -0.992331    1.603666
H      0.032094   -2.314220    0.702158
H      0.548437   -0.471313   -2.530874
H     -0.804003   -1.585857   -2.122473
H      0.871325   -2.001030   -1.637740
H      1.762033    0.731073   -0.785914
H      2.360595    1.281672    1.592981
H      0.813188    1.981939    1.061883
H      0.836175    0.525083    2.152219
22

C     -0.958402   -0.679002   -2.008422
C     -0.273416    0.273466   -1.362458
C     -0.090756    0.285442    0.152651
C      0.736535    1.530158    0.552095
C      0.630835   -1.008745    0.638255
C      2.005081   -1.252731    0.003316
C     -1.474533    0.370446    0.848714
O     -2.197303    1.481886    0.380981
O     -3.343206    1.469129    1.034519
H     -1.424309   -1.501960   -1.477396
H     -1.055299   -0.637121   -3.088367
H      0.168490    1.068606   -1.957683
H      0.192306    2.465312    0.298681
H      0.941358    1.532834    1.644447
H      1.705850    1.559965    0.011666
H     -0.004863   -1.895967    0.426835
H      0.762118   -0.969949    1.742276
H      2.390121   -2.240220    0.334434
H      2.733453   -0.480874    0.325730
H      1.937934   -1.262529   -1.104330
H     -2.054025   -0.560837    0.653070
H     -1.327969    0.452692    1.950985
20

C      0.521202    2.834543    0.939251
C      0.332143    1.750040    0.446638
C      0.100520    0.420706   -0.156622
C     -0.269952    0.636140   -1.637649
C     -1.068220   -0.255645    0.617978
C     -1.419566   -1.673294    0.154015
C      1.413600   -0.392998   -0.064625
O      1.748269   -0.641111    1.277779
O      2.868256   -1.337558    1.248248
H      0.687127    3.786050    1.371520
H     -1.238497    1.174547   -1.727449
H      0.510959    1.237228   -2.153407
H     -0.352414   -0.331186   -2.175681
H     -0.821992   -0.302653    1.702199
H     -1.983190    0.371508    0.526304
H     -0.567272   -2.366082    0.308208
H     -1.725162   -1.682673   -0.911760
H     -2.273931   -2.050361    0.754807
H      1.302320   -1.355254   -0.613792
H      2.235802    0.178053   -0.556868
18

C     -2.683436    0.183953    1.101884
C     -1.565339    0.025332    0.678342
C     -0.196173   -0.169182    0.158891
C      0.219647   -1.624348    0.443149
C      0.738330    0.794095    0.875887
C      2.052170    0.856248    0.623681
C     -0.200492    0.092997   -1.364082
O     -0.551813    1.427987   -1.629961
O     -0.530530    1.552387   -2.943120
H     -3.664426    0.323172    1.473425
H     -0.498669   -2.335354   -0.020834
H      0.244777   -1.817003    1.538161
H      1.227260   -1.839369    0.028033
H      0.337284    1.470298    1.627798
H      2.518971    0.212181   -0.113892
H      2.673805    1.563207    1.163423
H      0.807926   -0.122614   -1.785711
H     -0.929293   -0.593989   -1.855074
24

C     -1.784268    1.145808    0.656835
C     -1.213242   -0.260915    0.424035
C     -2.347629   -1.293537    0.446580
C     -0.439782   -0.361808   -0.912854
C      0.760622    0.598602   -1.053896
C      1.839953    0.478309    0.048337
C      2.444078   -0.927693    0.099941
O      2.880758    1.390414   -0.215545
O      2.472509    2.568528    0.219668
H     -2.409730    1.160525    1.574921
H     -0.965602    1.880033    0.804690
H     -2.408395    1.463658   -0.205763
H     -0.532665   -0.510146    1.265512
H     -2.878230   -1.261728    1.422250
H     -1.937575   -2.317596    0.314002
H     -3.078804   -1.091749   -0.365781
H     -1.140968   -0.154265   -1.751248
H     -0.084108   -1.404756   -1.056145
H      0.385089    1.643128   -1.088672
H      1.237725    0.410034   -2.040729
H      1.393512    0.685182    1.048644
H      1.694805   -1.666360    0.453151
H      2.817065   -1.230445   -0.901874
H      3.294883   -0.943224    0.813942
24

C      3.033735    0.194059    0.240455
C      2.030341    1.065729   -0.518667
C      0.715424    0.336628   -0.880064
C     -0.115620    0.005260    0.378214
C     -1.499211   -0.612729    0.059150
C     -2.127474   -1.178578    1.340039
C     -2.455180    0.408245   -0.578018
O      0.984646   -0.851438   -1.590219
O      1.247847   -0.497610   -2.834740
H      3.984566    0.753871    0.364904
H      2.652549   -0.058929    1.251014
H      3.249827   -0.739217   -0.320680
H      2.513422    1.417080   -1.456193
H      1.802860    1.969495    0.087633
H      0.118694    1.042270   -1.502356
H     -0.254816    0.925319    0.988292
H      0.456814   -0.720213    0.995378
H     -1.368217   -1.459923   -0.649533
H     -1.468636   -1.956760    1.781209
H     -3.106920   -1.651605    1.113355
H     -2.282607   -0.372346    2.089177
H     -2.106215    0.698614   -1.589642
H     -2.538857    1.317598    0.054977
H     -3.466972   -0.034820   -0.697992
24

C      3.057525   -0.373519   -0.417279
C      2.298032    0.706576    0.353420
C      0.860453    0.910376   -0.157220
C     -0.088960   -0.247001    0.221378
O     -0.221720   -0.292827    1.627509
O     -0.124128   -1.559696    1.986804
C     -1.482955   -0.086797   -0.448032
C     -2.272417    1.119176    0.089462
C     -2.315588   -1.367155   -0.289114
H      3.012508   -0.178147   -1.509739
H      2.642076   -1.379347   -0.202537
H      4.122490   -0.369356   -0.102900
H      2.294024    0.458469    1.436672
H      2.848611    1.665049    0.234488
H      0.481957    1.855050    0.287504
H      0.878556    1.045127   -1.261115
H      0.364875   -1.179661   -0.191614
H     -1.331461    0.066335   -1.539995
H     -1.752610    2.069318   -0.148763
H     -3.273450    1.164375   -0.390426
H     -2.413007    1.045147    1.188728
H     -3.266109   -1.278324   -0.857487
H     -2.558568   -1.550974    0.779125
H     -1.760133   -2.242196   -0.688869
24

C      2.946213    0.879974    0.132894
C      2.240672   -0.352503    0.698403
C      0.709032   -0.232937    0.658272
C      0.151244   -0.300946   -0.777492
C     -1.395133   -0.356030   -0.865536
C     -1.959103   -1.673409   -0.312950
C     -2.085180    0.850813   -0.203754
O     -1.593143    2.046723   -0.750413
O     -2.224581    3.018202   -0.119781
H      2.772897    0.965920   -0.959650
H      4.039823    0.788429    0.301957
H      2.586794    1.800992    0.639171
H      2.569351   -1.257802    0.143195
H      2.555002   -0.476943    1.757447
H      0.405640    0.718447    1.144981
H      0.294568   -1.069547    1.257812
H      0.501185    0.585979   -1.347069
H      0.567644   -1.195845   -1.290233
H     -1.653150   -0.328106   -1.948088
H     -3.037087   -1.758272   -0.567946
H     -1.861231   -1.722384    0.791526
H     -1.431004   -2.540640   -0.763337
H     -3.181416    0.781101   -0.390771
H     -1.919039    0.828788    0.897054
22

C      2.625943    0.799980   -0.758719
C      2.021975    0.004350    0.129270
C      1.093482   -1.110360   -0.299298
C     -0.211143   -0.573950   -0.935263
C     -1.280306   -0.053490    0.061200
C     -0.828802    1.214417    0.800704
C     -2.591415    0.225849   -0.686917
O      0.782952   -1.938848    0.797327
O      1.844957   -2.693370    1.014214
H      2.458106    0.678849   -1.824416
H      3.300810    1.578619   -0.418643
H      2.240633    0.139556    1.184806
H      1.613096   -1.704904   -1.089695
H     -0.658543   -1.418236   -1.505609
H      0.022430    0.214851   -1.683729
H     -1.495146   -0.841310    0.815937
H     -1.673973    1.651247    1.374554
H     -0.453752    1.976663    0.084505
H     -0.034734    0.973103    1.535123
H     -2.952411   -0.696242   -1.190625
H     -2.444484    1.018806   -1.451739
H     -3.379674    0.554420    0.023865
22

C      2.781227   -0.810369   -0.756426
C      2.001670    0.253265   -0.971497
C      1.316453    0.977905    0.157472
C      0.185151    0.152758    0.806972
O     -0.368975    0.920507    1.855745
O     -0.518252    0.116715    2.892921
C     -0.927520   -0.259766   -0.202038
C     -1.909402   -1.248208    0.442920
C     -1.695929    0.944874   -0.770679
H      2.941445   -1.193230    0.246761
H      3.269474   -1.302774   -1.590999
H      1.878548    0.623138   -1.985077
H      2.073880    1.229078    0.932130
H      0.918207    1.943451   -0.218097
H      0.665766   -0.781789    1.190027
H     -0.456259   -0.793965   -1.055913
H     -1.362311   -2.123067    0.854494
H     -2.481509   -0.761698    1.261400
H     -2.629327   -1.622119   -0.316277
H     -2.510365    0.596607   -1.441355
H     -1.025983    1.588133   -1.376782
H     -2.145988    1.550551    0.044298
22

C      2.908029   -0.348260   -0.948223
C      1.891157    0.480060   -1.203399
C      1.221704    1.274169   -0.113617
C      0.424278    0.390547    0.863667
C     -0.683652   -0.468005    0.201463
C     -1.243257   -1.462484    1.231151
C     -1.817124    0.402366   -0.376839
O     -2.792644   -0.412508   -0.974188
O     -3.730180    0.406778   -1.410446
H      3.375826   -0.898626   -1.757931
H      3.281779   -0.480593    0.062449
H      1.552689    0.603515   -2.227839
H      0.557809    2.037289   -0.568812
H      1.997756    1.831122    0.455199
H     -0.030855    1.045034    1.639270
H      1.142556   -0.276706    1.389105
H     -0.238753   -1.063228   -0.625865
H     -1.723050   -0.923021    2.076059
H     -1.993137   -2.133019    0.760646
H     -0.427596   -2.101631    1.631797
H     -2.270798    1.009842    0.440121
H     -1.402536    1.087358   -1.147886
20

C      3.015921   -1.205691    0.267260
C      2.267525   -0.264419    0.354359
C      1.354810    0.882359    0.461589
C      0.158032    0.715909   -0.501251
C     -0.735239   -0.516284   -0.208636
C     -1.747012   -0.708269   -1.346072
C     -1.478012   -0.383883    1.129781
O      2.077202    2.042973    0.128118
O      1.429939    3.059369    0.668277
H      3.672346   -2.032160    0.190606
H      1.006799    0.930966    1.518037
H      0.555018    0.643294   -1.538892
H     -0.470353    1.632851   -0.461341
H     -0.104736   -1.431178   -0.169891
H     -2.368224   -1.610787   -1.161621
H     -2.414766    0.176214   -1.430177
H     -1.217227   -0.851251   -2.312072
H     -2.183277   -1.231825    1.263945
H     -0.765895   -0.414399    1.979319
H     -2.052849    0.566211    1.168663
20

C      3.815823    0.156127    0.707415
C      2.717288    0.442194    0.301436
C      1.379774    0.791610   -0.193848
C      0.357890   -0.317673    0.128365
O      0.082165   -0.331327    1.513984
O      0.905192   -1.205273    2.063755
C     -0.964189   -0.122368   -0.660981
C     -1.882223   -1.340564   -0.483998
C     -1.713481    1.160588   -0.262452
H      4.779917   -0.095322    1.064035
H      1.073783    1.749675    0.276147
H      1.449304    0.941408   -1.292380
H      0.788491   -1.291037   -0.218078
H     -0.720796   -0.051604   -1.744778
H     -1.361929   -2.266250   -0.810321
H     -2.185576   -1.454890    0.578803
H     -2.796277   -1.226086   -1.105132
H     -1.950753    1.162143    0.822653
H     -1.109800    2.059295   -0.504317
H     -2.664603    1.239356   -0.831215
20

C      4.062825    0.181870    0.602127
C      2.872262    0.338876    0.708516
C      1.423092    0.530213    0.838533
C      0.693843   -0.070739   -0.371364
C     -0.821110    0.244234   -0.378493
C     -1.412061   -0.090707   -1.757455
C     -1.570949   -0.525474    0.727266
O     -2.932349   -0.180749    0.713663
O     -3.497565   -0.903032    1.662015
H      5.107886    0.043948    0.508548
H      1.215105    1.618999    0.909069
H      1.096341    0.038144    1.776901
H      1.151955    0.352808   -1.293783
H      0.851087   -1.172340   -0.394107
H     -0.961209    1.335211   -0.208430
H     -2.488436    0.179603   -1.798195
H     -1.304907   -1.175044   -1.976190
H     -0.891712    0.487518   -2.550642
H     -1.144181   -0.263052    1.719504
H     -1.449916   -1.621196    0.562518
22

C      1.724459    0.945845   -1.338715
C      1.390639   -0.118603   -0.593318
C      2.295814   -0.536032    0.536156
C      0.096896   -0.872519   -0.865357
C     -0.933689   -0.623791    0.250679
C     -1.401507    0.838833    0.301229
C     -2.477453    1.035971    1.365032
O      0.353997   -2.255121   -0.939377
O      0.924919   -2.468991   -2.110820
H      1.087910    1.284862   -2.150209
H      2.640218    1.495793   -1.142567
H      1.899843   -1.431673    1.058625
H      2.383119    0.290539    1.272715
H      3.303871   -0.780653    0.139561
H     -0.367875   -0.529111   -1.821895
H     -1.816332   -1.274421    0.062556
H     -0.506924   -0.914628    1.235586
H     -0.543616    1.503899    0.538912
H     -1.814827    1.136175   -0.687061
H     -3.364761    0.407301    1.138148
H     -2.082466    0.765650    2.367537
H     -2.792235    2.100675    1.382585
22

C      1.033004    1.700868   -0.903058
C      1.230070    0.442207   -0.482240
C      2.213996    0.179977    0.625691
C      0.474414   -0.704735   -1.117494
C     -0.727678   -1.203653   -0.279761
C     -1.854525   -0.148840   -0.148480
C     -1.749105    0.740909    1.094322
O     -0.314289   -1.649266    0.993564
O      0.205189   -2.851804    0.826518
H      1.571980    2.528227   -0.450968
H      0.326737    1.921698   -1.697549
H      2.305925   -0.906939    0.830321
H      1.878269    0.688212    1.554219
H      3.215545    0.565307    0.339637
H      0.118619   -0.420591   -2.132860
H      1.180342   -1.548593   -1.274856
H     -1.178822   -2.051082   -0.851606
H     -1.891289    0.491833   -1.056226
H     -2.830510   -0.679279   -0.093031
H     -2.560337    1.498756    1.073183
H     -0.779314    1.272620    1.133916
H     -1.868221    0.134168    2.016758
22

C      2.365792    1.088267    0.481381
C      1.813981   -0.059399    0.059830
C      2.648661   -1.035723   -0.725108
C      0.370880   -0.372445    0.384744
C     -0.579546    0.472353   -0.480827
C     -2.071588    0.117648   -0.287986
C     -2.568697    0.484573    1.112530
O     -2.299387   -1.254898   -0.509782
O     -2.302170   -1.430381   -1.818385
H      3.402588    1.321964    0.257825
H      1.788294    1.805999    1.056394
H      3.508062   -1.375621   -0.109319
H      2.056725   -1.925298   -1.025710
H      3.031207   -0.546655   -1.645953
H      0.193502   -0.173747    1.463228
H      0.170419   -1.451005    0.210549
H     -0.317855    0.322875   -1.551541
H     -0.429579    1.551229   -0.256144
H     -2.668261    0.732645   -1.003807
H     -2.103900   -0.165520    1.882820
H     -2.339574    1.547251    1.341318
H     -3.669553    0.345892    1.163944
20

C      2.824369   -0.032989   -1.170585
C      2.228173    0.726154   -0.244823
C      0.724870    0.791938   -0.099013
C      0.174139   -0.551823    0.407579
C     -1.315008   -0.476369    0.665729
C     -1.780101    0.162247    1.749721
C     -2.286775   -1.129745   -0.280161
O      0.125237    1.110917   -1.333836
O      0.308196    2.405739   -1.516746
H      2.242818   -0.640837   -1.856746
H      3.906638   -0.044290   -1.247901
H      2.843857    1.333297    0.412330
H      0.484468    1.567075    0.667414
H      0.389334   -1.346548   -0.339089
H      0.692873   -0.843360    1.347961
H     -2.846576    0.218386    1.947236
H     -1.100455    0.633822    2.453204
H     -2.861530   -1.915311    0.254466
H     -2.991792   -0.369323   -0.677895
H     -1.762737   -1.598978   -1.138843
20

C      3.085195    0.078582    0.564830
C      2.355231   -0.068813   -0.544677
C      0.930673    0.411147   -0.630794
C     -0.039571   -0.550214    0.076240
O      0.202712   -0.532269    1.463770
O     -0.372744   -1.612717    1.958725
C     -1.472638   -0.130550   -0.207229
C     -2.225653   -0.828845   -1.070569
C     -2.047783    1.105184    0.434848
H      2.669539    0.547563    1.451244
H      4.114187   -0.265126    0.586695
H      2.813186   -0.516097   -1.422061
H      0.851729    1.435370   -0.204215
H      0.656107    0.473811   -1.706752
H      0.152376   -1.573025   -0.332190
H     -3.244359   -0.523724   -1.291438
H     -1.836630   -1.711179   -1.569423
H     -1.307804    1.592162    1.103761
H     -2.940441    0.834479    1.037420
H     -2.343312    1.834261   -0.349092
18

C      3.721753    0.022359   -0.508059
C      2.596360   -0.136598   -0.105598
C      1.226234   -0.331031    0.384540
C      0.233413    0.259960   -0.631581
C     -1.202076   -0.023504   -0.246599
C     -1.704475   -1.259846   -0.381847
C     -2.085662    1.080147    0.270451
O      1.106125    0.326146    1.624934
O      0.273554   -0.389335    2.358554
H      4.709443    0.161986   -0.861439
H      1.072569   -1.433235    0.472224
H      0.400768    1.356808   -0.709823
H      0.423228   -0.167823   -1.641684
H     -2.735205   -1.473614   -0.114633
H     -1.092095   -2.071591   -0.762916
H     -2.947012    1.224762   -0.415432
H     -1.532346    2.039169    0.348649
H     -2.464577    0.815242    1.280270
18

C      3.470273    0.436664   -1.365278
C      2.277777    0.287847   -1.269574
C      0.824955    0.106609   -1.153172
C      0.377865    0.183920    0.314368
O      0.641150    1.473661    0.818649
O      0.600524    1.376559    2.134892
C     -1.105258   -0.134232    0.427718
C     -2.026388    0.713304   -0.058688
C     -1.561665   -1.400133    1.103819
H      4.517088    0.567361   -1.449008
H      0.320670    0.891937   -1.755657
H      0.561238   -0.886873   -1.575713
H      0.972041   -0.575795    0.877358
H     -3.086115    0.490786    0.025281
H     -1.733810    1.640134   -0.542425
H     -2.157617   -2.010950    0.393036
H     -2.190436   -1.149800    1.984381
H     -0.702291   -2.011000    1.450024
22

C      3.459720    0.427363    0.511858
C      2.169148   -0.166224    0.039573
C      1.312593    0.548636   -0.703113
C      0.013989   -0.035955   -1.193855
C     -1.000564   -0.262559   -0.050626
C     -1.419257    1.071619    0.590746
C     -2.232091   -1.016908   -0.581313
O     -3.089963   -1.342935    0.481449
O     -4.116783   -1.967476   -0.062518
H      4.078508    0.730810   -0.358908
H      3.257657    1.314074    1.149178
H      4.021170   -0.322420    1.107524
H      1.934293   -1.192682    0.307746
H      1.562412    1.568351   -0.984379
H      0.232524   -0.997829   -1.707914
H     -0.425923    0.650986   -1.949654
H     -0.525828   -0.895050    0.732247
H     -2.138713    0.895741    1.418195
H     -1.894824    1.736306   -0.162088
H     -0.536660    1.590715    1.020247
H     -1.896633   -1.953013   -1.084092
H     -2.764774   -0.381550   -1.326462
22

C      2.799594    0.357202   -0.755889
C      2.156271   -0.804684   -0.057094
C      1.043675   -0.709465    0.692565
C      0.262105    0.567424    0.917253
C     -1.104743    0.576531    0.195854
C     -0.938448    0.553536   -1.330943
C     -2.021071   -0.564799    0.675342
O     -3.325387   -0.359279    0.197898
O     -4.038073   -1.374657    0.646748
H      3.693023    0.006537   -1.313555
H      3.125045    1.116797   -0.014534
H      2.091602    0.812287   -1.478423
H      2.623989   -1.779554   -0.160724
H      0.665810   -1.616834    1.154375
H      0.840459    1.464140    0.611673
H      0.092426    0.674366    2.010240
H     -1.601189    1.537109    0.460357
H     -0.462309   -0.392950   -1.664478
H     -1.927514    0.646635   -1.827414
H     -0.312082    1.409573   -1.659552
H     -2.031948   -0.578760    1.789360
H     -1.631235   -1.541156    0.306822
20

C      3.701830    0.784952   -0.305541
C      2.405633    0.253480    0.115115
C      1.336532   -0.183513    0.460481
C      0.032475   -0.714210    0.879887
C     -0.999460   -0.656442   -0.266041
C     -2.276167   -1.410756    0.130284
C     -1.331654    0.790784   -0.683131
O     -1.867651    1.506079    0.400490
O     -2.114468    2.719192   -0.055070
H      4.231479    1.207004    0.573195
H      4.310304   -0.030683   -0.747506
H      3.546777    1.581888   -1.061666
H     -0.326745   -0.140030    1.760420
H      0.182622   -1.768655    1.196310
H     -0.570401   -1.177349   -1.151825
H     -2.739233   -0.956707    1.032532
H     -3.011599   -1.386767   -0.702062
H     -2.040203   -2.474269    0.348264
H     -2.063178    0.766112   -1.523210
H     -0.406892    1.289889   -1.051832
22

C      3.130918    0.449649    0.160190
C      2.114235    1.344589   -0.543141
C      0.898754    0.565873   -0.964029
C      0.012787    0.108973   -0.065510
C     -1.216719   -0.664856   -0.479528
C     -1.166550   -2.069093    0.129114
C     -2.485207    0.074845   -0.032750
O     -2.554274    1.324487   -0.669311
O     -3.659480    1.893333   -0.227543
H      4.032262    1.044363    0.418581
H      2.702680    0.033582    1.096734
H      3.434797   -0.385402   -0.506758
H      1.815631    2.178142    0.128972
H      2.590545    1.784617   -1.445437
H      0.732771    0.401597   -2.025135
H      0.176178    0.295662    0.993176
H     -1.252565   -0.776613   -1.586931
H     -0.251661   -2.599514   -0.212260
H     -2.049899   -2.659440   -0.195589
H     -1.157998   -2.017626    1.239527
H     -2.470983    0.207109    1.074290
H     -3.376221   -0.534277   -0.309812
22

C      2.755957   -0.041658   -0.850531
C      1.633150    0.939448   -1.175042
C      0.925174    1.384169    0.078869
C     -0.078373    0.711662    0.673959
C     -0.714329   -0.551236    0.128059
C     -1.150701   -1.462584    1.281437
C     -1.901841   -0.205081   -0.784560
O     -2.880490    0.506658   -0.070719
O     -3.848197    0.751921   -0.932968
H      2.359022   -0.948561   -0.348991
H      3.504314    0.440074   -0.185452
H      3.262402   -0.349312   -1.789497
H      0.923929    0.492248   -1.902514
H      2.080250    1.832322   -1.662271
H      1.257524    2.311956    0.535959
H     -0.512544    1.150511    1.568737
H      0.021283   -1.128441   -0.469571
H     -0.270713   -1.734728    1.902987
H     -1.900609   -0.957859    1.927873
H     -1.595248   -2.399273    0.882323
H     -1.535985    0.406213   -1.640739
H     -2.333974   -1.148449   -1.190496
20

C      3.683445    0.706177   -0.476678
C      2.619956    0.477783    0.288271
C      1.320479    0.118729   -0.301721
C      0.255059   -0.108527    0.471331
C     -1.088188   -0.473497   -0.109975
C     -1.518249   -1.846454    0.414826
C     -2.130356    0.594659    0.249524
O     -1.761732    1.825995   -0.315776
O     -2.697669    2.682770    0.045037
H      3.624435    0.634621   -1.555836
H      4.629900    0.969059   -0.022356
H      2.720860    0.559851    1.364287
H      1.232454    0.039956   -1.379588
H      0.344110   -0.026095    1.549306
H     -1.029078   -0.539575   -1.220125
H     -1.623084   -1.830836    1.521407
H     -0.764132   -2.613822    0.136752
H     -2.491534   -2.140356   -0.033075
H     -2.204616    0.686982    1.358225
H     -3.122059    0.282582   -0.151542
20

C      2.392222    1.773359    1.710523
C      1.621484    1.001063    0.949952
C      0.550630    0.177386    1.547127
C     -0.277291   -0.611653    0.846640
C     -0.258926   -0.761625   -0.659912
C     -0.953329   -2.066340   -1.073505
C     -0.922065    0.447609   -1.343734
O     -2.257897    0.574452   -0.927257
O     -2.738005    1.621843   -1.569633
H      2.255368    1.820974    2.783906
H      3.173836    2.370198    1.258503
H      1.804211    0.992089   -0.115699
H      0.427456    0.200363    2.624102
H     -1.008854   -1.183301    1.407009
H      0.793100   -0.841672   -1.009781
H     -2.018080   -2.070345   -0.755091
H     -0.909427   -2.191146   -2.176617
H     -0.439510   -2.934500   -0.607534
H     -0.876816    0.308071   -2.448237
H     -0.358106    1.373176   -1.091670
18

C      4.110962   -0.380791    0.105531
C      2.906586   -0.430630    0.090529
C      1.469902   -0.491064    0.072960
C      0.748192    0.574856   -0.285775
C     -0.761888    0.564725   -0.320519
C     -1.283491   -0.451203   -1.346431
C     -1.350207    0.313652    1.078048
O     -2.739074    0.517634    1.053311
O     -3.160055    0.282235    2.281192
H      5.168263   -0.336904    0.118660
H      0.988346   -1.417751    0.356370
H      1.255318    1.492124   -0.565234
H     -1.092070    1.574702   -0.651081
H     -0.828554   -0.256520   -2.341281
H     -1.040950   -1.490376   -1.037972
H     -2.385697   -0.360808   -1.449011
H     -1.123049   -0.727827    1.402266
H     -0.882533    1.023947    1.798450
18

C      2.628003    0.530954   -1.845387
C      2.193203    0.741335   -0.740855
C      1.673463    0.994454    0.579331
C      0.556321    0.424182    1.047356
C     -0.313939   -0.524024    0.249921
C     -0.859864   -1.620775    1.170661
C     -1.467754    0.239699   -0.416888
O     -0.957639    1.160609   -1.345731
O     -2.006757    1.774011   -1.858810
H      3.008956    0.345941   -2.815180
H      2.215495    1.683245    1.214333
H      0.225318    0.705805    2.040525
H      0.281272   -1.031547   -0.540773
H     -1.462007   -2.348259    0.585341
H     -0.020356   -2.171684    1.646696
H     -1.501156   -1.185369    1.967471
H     -2.129306   -0.488055   -0.940763
H     -2.063253    0.769479    0.362764
20

C      3.021402    0.938241    0.646255
C      2.684097   -0.385385   -0.028419
C      1.239030   -0.493231   -0.252920
C      0.050376   -0.579221   -0.436003
C     -1.400879   -0.680172   -0.657850
C     -2.058954   -1.441220    0.496992
C     -2.015734    0.715315   -0.839120
O     -1.814080    1.496472    0.311381
O     -2.371855    2.664262    0.056046
H      2.512023    1.011106    1.631325
H      4.117982    1.002994    0.808266
H      2.706146    1.790148    0.005928
H      3.015504   -1.227297    0.615278
H      3.209280   -0.451026   -1.004564
H     -1.564090   -1.257780   -1.593458
H     -1.894107   -0.917610    1.463505
H     -3.151892   -1.532460    0.320275
H     -1.634200   -2.465622    0.569941
H     -3.105891    0.606476   -1.041866
H     -1.544159    1.206013   -1.721900
18

C      3.706557   -0.566803    0.168271
C      3.000363    0.541925   -0.022435
C      1.570439    0.488743   -0.161262
C      0.371085    0.443333   -0.277375
C     -1.092141    0.386644   -0.418805
C     -1.488422   -0.894494   -1.159761
C     -1.752961    0.463865    0.964258
O     -3.147854    0.536417    0.822533
O     -3.632497    0.588893    2.048363
H      4.782470   -0.511666    0.271150
H      3.223984   -1.535395    0.223672
H      3.501972    1.499458   -0.074688
H     -1.413895    1.263349   -1.021983
H     -0.998819   -0.927061   -2.157043
H     -1.184417   -1.794254   -0.581826
H     -2.587404   -0.924237   -1.317402
H     -1.385785    1.375282    1.491079
H     -1.472676   -0.433998    1.563265
16

C      4.341025   -1.375154    0.200881
C      3.235102   -0.899957    0.139252
C      1.939889   -0.343511    0.067062
C      0.833421    0.131368    0.005314
C     -0.516792    0.711082   -0.069760
C     -1.048250    0.595390   -1.502095
C     -1.442676    0.008072    0.932290
O     -2.694600    0.643229    0.951017
O     -3.424884   -0.025074    1.822998
H      5.312118   -1.792424    0.254995
H     -0.444617    1.787320    0.199463
H     -0.362351    1.111830   -2.207906
H     -1.137553   -0.470675   -1.804586
H     -2.046475    1.075557   -1.582679
H     -0.984859    0.060739    1.947509
H     -1.558498   -1.063504    0.646244
22

C     -2.553912   -0.372306    1.003134
C     -1.491255   -0.043392   -0.013723
C     -1.635638    1.196327   -0.863535
C     -0.434899   -0.878263   -0.132547
C      0.729318   -0.674200   -1.077971
C      2.036642   -0.342931   -0.328150
C      1.966396    1.034153    0.335312
O      2.311649   -1.311357    0.657909
O      2.812536   -2.358486    0.028746
H     -2.104701   -0.401581    2.018519
H     -2.998416   -1.364077    0.774188
H     -3.369231    0.380675    1.005952
H     -0.767733    1.869576   -0.706378
H     -2.554208    1.762915   -0.605293
H     -1.701221    0.914511   -1.935419
H     -0.386035   -1.751054    0.514285
H      0.872588   -1.618095   -1.645790
H      0.529693    0.110430   -1.836437
H      2.867260   -0.295074   -1.072666
H      2.936338    1.262430    0.825949
H      1.767059    1.819125   -0.424896
H      1.167769    1.060672    1.106851
22

C     -2.995655    0.277985   -0.932307
C     -1.614818    0.638581   -0.386494
C     -0.938696   -0.565090    0.291438
C      0.337727   -0.139434    0.997398
C      1.542652    0.085992    0.419836
C      1.802114   -0.124491   -1.054357
C      2.677469    0.538827    1.304048
O     -0.701967   -1.585439   -0.649707
O     -0.496777   -2.692301    0.040508
H     -3.458922    1.176163   -1.392447
H     -3.655075   -0.079272   -0.112877
H     -2.912628   -0.512422   -1.708100
H     -0.995680    1.021780   -1.221692
H     -1.734869    1.460081    0.353807
H     -1.647671   -0.926903    1.074843
H      0.254123   -0.002743    2.073321
H      1.676631   -1.194558   -1.317039
H      2.839918    0.159247   -1.326054
H      1.124476    0.497911   -1.668652
H      2.863399   -0.219032    2.094526
H      2.415856    1.506004    1.783377
H      3.618394    0.679113    0.732507
22

C     -0.560812    1.414407    0.865453
C     -0.728995    0.166963   -0.026250
C     -2.102896   -0.491834    0.196948
C     -0.449457    0.450473   -1.510824
C      0.677283   -0.580557   -1.507813
C      0.423659   -0.867816   -0.024694
C      1.636014   -0.621127    0.899366
O      2.319492    0.559956    0.566861
O      3.308676    0.660322    1.433714
H     -0.512275    1.118325    1.934412
H      0.347030    1.994832    0.605408
H     -1.429690    2.093322    0.731168
H     -2.240956   -1.370986   -0.469382
H     -2.192210   -0.831841    1.250624
H     -2.916090    0.234683   -0.015138
H     -0.068846    1.476286   -1.711888
H     -1.279155    0.161050   -2.193363
H      0.443037   -1.456880   -2.151180
H      1.666136   -0.127441   -1.735817
H      0.054275   -1.909701    0.113348
H      1.279921   -0.583424    1.953375
H      2.325858   -1.489012    0.795670
22

C     -1.840037   -0.181973    0.888043
C     -0.624213    0.296202    0.065933
C     -0.419563    1.817361    0.236414
C     -0.732532   -0.115001   -1.410769
C      0.496072   -1.007996   -1.268076
C      0.644097   -0.602232    0.209672
C      1.968923    0.134160    0.516995
O      0.427008   -1.681086    1.099123
O      1.361026   -2.583172    0.856693
H     -1.648277   -0.028982    1.971376
H     -2.746790    0.393035    0.602738
H     -2.051482   -1.258942    0.712334
H     -1.366443    2.355095    0.016459
H      0.350231    2.214027   -0.457394
H     -0.121234    2.047706    1.280919
H     -1.646605   -0.700372   -1.655582
H     -0.556232    0.716784   -2.128310
H      0.240870   -2.080981   -1.411461
H      1.335971   -0.670771   -1.914758
H      2.821351   -0.576366    0.496689
H      2.187072    0.921076   -0.234009
H      1.920785    0.592429    1.526972
22

C      0.284745    1.851416   -1.007905
C      0.540490    0.795113    0.077400
C      1.503609   -0.309367   -0.372735
O      2.574200   -0.445464    0.527124
O      3.351224   -1.384458    0.022582
C      0.417541   -1.363533   -0.140554
C     -0.561577   -0.267854    0.308367
C     -1.810542   -0.181165   -0.592631
C     -0.949971   -0.395414    1.792177
H      1.181397    2.498814   -1.105822
H     -0.575254    2.489700   -0.716202
H      0.084034    1.390901   -1.997756
H      0.874403    1.283389    1.021634
H      1.823889   -0.226086   -1.438675
H      0.680866   -2.089766    0.660850
H      0.127521   -1.866915   -1.089174
H     -1.543104   -0.194929   -1.669806
H     -2.474433   -1.051180   -0.402309
H     -2.377479    0.747873   -0.372188
H     -1.517997    0.503595    2.112929
H     -0.048956   -0.490640    2.436394
H     -1.584605   -1.294029    1.946300
22

C      0.157159    1.449949   -1.490280
C      0.436444    0.880577   -0.088297
C      1.600568   -0.118804    0.004466
O      2.130098   -0.471070   -1.249961
O      3.143865   -1.276830   -0.999118
C      0.647826   -1.187718    0.547266
C     -0.530015   -0.205158    0.445242
C     -1.625065   -0.695077   -0.524305
C     -1.120182    0.156616    1.819805
H      0.975486    2.145151   -1.772584
H     -0.794753    2.020823   -1.476948
H      0.093406    0.657833   -2.264250
H      0.580964    1.714338    0.635883
H      2.373812    0.206164    0.739951
H      0.560115   -2.069788   -0.125779
H      0.905146   -1.476257    1.590433
H     -1.194012   -1.061723   -1.479350
H     -2.185860   -1.537428   -0.066194
H     -2.340393    0.126256   -0.740774
H     -1.848626    0.988081    1.711260
H     -0.324454    0.475971    2.527363
H     -1.641529   -0.721907    2.256172
22

C      1.675888   -0.053318   -1.488789
C      1.045489    0.379226   -0.156685
C      1.286329   -0.619003    0.978223
C     -0.220321   -0.815845    1.145888
O     -0.647858   -0.376512    2.411889
O     -1.897725   -0.781319    2.530258
C     -0.483587    0.193799    0.005015
C     -1.227327   -0.453636   -1.181202
C     -1.176861    1.500593    0.442004
H      2.776951    0.077381   -1.431524
H      1.291839    0.585640   -2.311156
H      1.468295   -1.118725   -1.720888
H      1.393635    1.398280    0.127281
H      1.766249   -0.141722    1.861199
H      1.797424   -1.554413    0.659372
H     -0.513573   -1.869758    0.921652
H     -2.290475   -0.626117   -0.909414
H     -0.789871   -1.436164   -1.455847
H     -1.195510    0.216223   -2.066371
H     -2.231163    1.301238    0.728702
H     -0.657224    1.965643    1.307423
H     -1.170606    2.228507   -0.397029
22

C      1.859735   -0.457865   -1.019102
C      1.057419    0.291429    0.055079
C      0.855947   -0.526425    1.333312
C     -0.663754   -0.445886    1.163199
O     -1.233371   -1.711867    0.934251
O     -1.360867   -2.271183    2.122189
C     -0.478053    0.379261   -0.129410
C     -1.057377   -0.273026   -1.405847
C     -0.994513    1.821736    0.026358
H      2.928474   -0.491000   -0.720091
H      1.785951    0.079687   -1.987424
H      1.507127   -1.502569   -1.147817
H      1.527151    1.276371    0.277746
H      1.202366    0.018452    2.238479
H      1.247811   -1.566490    1.274897
H     -1.167761    0.118143    1.984337
H     -2.167381   -0.254431   -1.367856
H     -0.741843   -1.330673   -1.517079
H     -0.728457    0.290570   -2.304487
H     -0.679507    2.434151   -0.845247
H     -0.595252    2.295346    0.949586
H     -2.103844    1.826269    0.084925
22

C     -2.053351    0.413222    0.719214
C     -0.679805    0.782671    0.139286
C     -0.682486    0.902241   -1.386666
C      0.363607   -0.205183   -1.489891
C      0.383121   -0.340731    0.041802
C     -0.059602   -1.743749    0.509638
C      1.740600    0.048318    0.675088
O      2.179528    1.301604    0.213365
O      3.328205    1.527884    0.821190
H     -2.722328    1.297706    0.665549
H     -1.945490    0.122866    1.785104
H     -2.534172   -0.414512    0.157358
H     -0.294790    1.711321    0.616888
H     -0.291168    1.883642   -1.733420
H     -1.644795    0.617217   -1.866717
H      1.317976    0.158146   -1.930307
H     -0.033835   -1.099142   -2.019730
H     -0.977297   -2.083868   -0.013984
H     -0.248017   -1.740679    1.604013
H      0.739628   -2.484301    0.293488
H      2.494554   -0.730164    0.416451
H      1.619917    0.075490    1.782281
22

C     -0.599890    1.983665   -0.241422
C     -0.311332    0.614620   -0.874984
C     -1.568444   -0.239893   -1.046908
C     -0.967014   -1.325807   -0.160247
C      0.306620   -0.484844    0.025195
C      1.537826   -1.148350   -0.622104
C      0.562863   -0.128952    1.509005
O      1.605857    0.805583    1.609023
O      1.757530    1.040753    2.898148
H     -1.240953    1.899704    0.660512
H      0.352835    2.486162    0.024469
H     -1.130369    2.621510   -0.979336
H      0.226247    0.736642   -1.842621
H     -1.706228   -0.581771   -2.096057
H     -2.487749    0.202756   -0.603223
H     -1.556202   -1.469540    0.772558
H     -0.808859   -2.277280   -0.715061
H      1.324019   -1.456857   -1.668556
H      2.390846   -0.437457   -0.637274
H      1.833745   -2.051184   -0.046521
H     -0.361462    0.271447    1.982441
H      0.840111   -1.060907    2.052963
22

C     -1.503607    1.442384    0.598149
C     -1.319003    0.118476   -0.159298
C     -2.515403   -0.837183   -0.205477
C     -0.463033    0.171112   -1.424660
C      0.060981   -0.549183   -0.178999
C      1.217019    0.151262    0.557107
C      2.547455   -0.509417    0.205560
O      3.583555    0.137205    0.895725
O      4.693261   -0.481170    0.540218
H     -1.418663    1.258159    1.689399
H     -0.764587    2.214792    0.301863
H     -2.513554    1.852550    0.388072
H     -2.289253   -1.764285   -0.775167
H     -2.800464   -1.120360    0.829264
H     -3.376738   -0.330581   -0.688993
H      0.015418    1.147988   -1.650280
H     -0.767312   -0.519006   -2.240219
H      0.058628   -1.659483   -0.242089
H      1.286174    1.231016    0.306282
H      1.045696    0.059371    1.651147
H      2.510558   -1.584615    0.495873
H      2.712871   -0.429032   -0.893477
22

C      2.716968   -0.293554    0.337770
C      1.322213    0.314358    0.512661
O      1.415763    1.718835    0.431308
O      1.781221    2.144716    1.626534
C      0.377685   -0.246945   -0.582578
C     -0.531557    0.730986   -1.343213
C     -1.133189   -0.206281   -0.301406
C     -1.955653   -1.369370   -0.865309
C     -1.670726    0.482586    0.962229
H      3.397323    0.072427    1.135587
H      3.140237   -0.010826   -0.650048
H      2.665731   -1.401355    0.407908
H      0.935707   -0.014712    1.506362
H      0.712223   -1.124732   -1.178802
H     -0.496702    1.800178   -1.047974
H     -0.713354    0.443426   -2.400799
H     -2.019819   -2.176264   -0.105820
H     -2.981739   -1.018411   -1.102956
H     -1.505740   -1.791470   -1.789708
H     -1.608991   -0.220118    1.819141
H     -2.734654    0.759107    0.807591
H     -1.112948    1.407418    1.217400
22

C      2.757639   -0.521260   -0.200581
C      1.325830   -0.547954   -0.727783
C      0.400728    0.351878    0.120489
O      0.840810    1.659350    0.384562
O      0.729276    2.306933   -0.758612
C     -0.217383   -0.319333    1.350719
C     -1.117218    0.115280    0.189754
C     -1.711759   -1.005729   -0.675401
C     -2.010065    1.333443    0.464106
H      3.174840    0.506325   -0.259599
H      2.785093   -0.869257    0.853994
H      3.392503   -1.194673   -0.814158
H      1.318578   -0.182453   -1.776536
H      0.983446   -1.603193   -0.737243
H     -0.255805    0.325016    2.255371
H     -0.034943   -1.411789    1.437945
H     -1.238134   -1.990951   -0.486188
H     -1.593975   -0.745364   -1.747984
H     -2.794755   -1.114007   -0.456803
H     -1.540949    2.055252    1.165989
H     -2.969534    0.997262    0.909841
H     -2.224222    1.855223   -0.491881
22

C      2.788048    0.623388   -0.540175
C      1.671104   -0.189881    0.103088
C      0.322076    0.138897   -0.559112
C     -0.574454    1.105772    0.219635
O     -1.281484    1.964680   -0.630788
O     -2.262294    2.445618    0.105951
C     -0.957518   -0.375460    0.118492
C     -2.101454   -0.750531   -0.833549
C     -0.842022   -1.182921    1.419680
H      3.756781    0.372544   -0.058830
H      2.595085    1.709637   -0.409184
H      2.859729    0.391537   -1.624351
H      1.885087   -1.270261   -0.041383
H      1.672807    0.021792    1.193093
H      0.279235    0.225721   -1.667437
H     -0.152921    1.516956    1.164287
H     -2.061130   -0.186401   -1.789655
H     -3.074876   -0.543251   -0.341851
H     -2.043705   -1.833857   -1.068663
H     -0.361857   -2.160958    1.207728
H     -0.260324   -0.652696    2.201822
H     -1.855915   -1.370327    1.831204
22

C      2.351442   -1.036615   -0.421496
C      1.616053    0.288387   -0.584656
C      0.130675    0.039514   -0.910102
C     -0.840404    1.203593   -0.660293
O     -0.242311    2.333152   -0.085352
O     -1.243058    3.047305    0.388527
C     -0.897610   -0.044467    0.229781
C     -2.080147   -0.979852   -0.038249
C     -0.430327    0.072546    1.692172
H      3.425217   -0.843931   -0.214471
H      1.924035   -1.614164    0.424902
H      2.271426   -1.639038   -1.351541
H      1.777182    0.902593    0.322822
H      2.068033    0.840469   -1.436025
H     -0.104051   -0.536136   -1.831974
H     -1.605431    1.350197   -1.455241
H     -2.364574   -0.998505   -1.112565
H     -1.812561   -2.011123    0.273489
H     -2.959947   -0.643909    0.549474
H      0.216947    0.949268    1.888376
H      0.116414   -0.849109    1.979492
H     -1.317002    0.169825    2.352929
22

C      2.763372    0.362316    1.054455
C      1.260308    0.606772    0.992931
C      0.612766   -0.309888   -0.059502
C      0.286240    0.349950   -1.401899
C     -0.845617   -0.042169   -0.450830
C     -1.603106    1.117234    0.217499
C     -1.658547   -1.279418   -0.855812
O     -2.206947   -1.867481    0.293633
O     -2.919449   -2.893247   -0.131083
H      2.972200   -0.694202    1.327428
H      3.217669    1.023594    1.822201
H      3.228289    0.585975    0.070526
H      1.093573    1.683816    0.780958
H      0.818803    0.376089    1.985801
H      0.941110   -1.370527   -0.123446
H      0.515632    1.434799   -1.469415
H      0.439615   -0.321223   -2.273569
H     -1.781193    0.875405    1.286048
H     -2.585593    1.255310   -0.280461
H     -1.059851    2.082146    0.150674
H     -1.019191   -2.019797   -1.390287
H     -2.470084   -0.955455   -1.545851
22

C      2.996502   -0.048517    0.130023
C      1.555255   -0.494101    0.347978
C      0.588635    0.425238   -0.420266
C     -0.260681    1.366159    0.440207
C     -0.919312    0.183229   -0.267667
C     -1.765120    0.535261   -1.498390
C     -1.417759   -0.959395    0.637401
O     -2.765683   -0.743311    0.962707
O     -3.137382   -1.788509    1.676852
H      3.683038   -0.720610    0.686919
H      3.136302    0.989976    0.499302
H      3.255534   -0.092439   -0.949492
H      1.360073   -0.496827    1.441225
H      1.441688   -1.532108   -0.031306
H      0.910504    0.845019   -1.398624
H     -0.435262    2.359670   -0.025058
H     -0.138834    1.261917    1.539473
H     -1.869421   -0.362497   -2.142768
H     -1.309165    1.349892   -2.101377
H     -2.774822    0.866223   -1.177565
H     -0.825012   -1.030002    1.575092
H     -1.309077   -1.914267    0.075333
22

C     -1.249154    0.393407    1.193457
C     -0.560038   -0.044473   -0.121309
C     -1.605902   -0.098260   -1.252540
C      0.105174   -1.416133    0.068832
C      1.512181   -1.140373    0.591285
C      1.818004    0.327218    0.295775
C      0.625597    0.877374   -0.484956
O      0.400333    2.224856   -0.135591
O     -0.245059    2.773531   -1.147496
H     -2.038284   -0.334944    1.479597
H     -0.516702    0.456628    2.026432
H     -1.730903    1.387352    1.074057
H     -2.392930   -0.845592   -1.013432
H     -2.093405    0.890743   -1.383976
H     -1.135469   -0.386523   -2.217222
H      0.191084   -1.945736   -0.906884
H     -0.462069   -2.073274    0.764565
H      1.552322   -1.323284    1.687701
H      2.250515   -1.805841    0.092566
H      2.755399    0.427653   -0.294174
H      1.943969    0.879418    1.253856
H      0.875338    0.776251   -1.570544
22

C     -2.004445   -0.220740    0.847814
C     -0.735737    0.125260    0.045415
C     -1.007381    1.366668   -0.833015
C     -0.284011   -1.057034   -0.821749
C      1.233659   -0.942701   -0.943648
C      1.705249    0.009686    0.161142
O      2.671083   -0.622556    0.967075
O      3.244978    0.331760    1.675947
C      0.459237    0.374950    0.973499
H     -2.292079    0.630637    1.501558
H     -1.838936   -1.111971    1.490892
H     -2.848595   -0.441261    0.159534
H     -1.846238    1.170205   -1.534987
H     -1.280302    2.238744   -0.200550
H     -0.111065    1.637420   -1.431239
H     -0.524954   -2.021616   -0.320692
H     -0.770899   -1.059782   -1.822022
H      1.703519   -1.946972   -0.850836
H      1.499570   -0.525916   -1.940219
H      2.124648    0.926335   -0.319735
H      0.505364    1.427666    1.330043
H      0.397335   -0.288781    1.865772
20

C      0.717929    1.400949    0.883491
C      0.289736    0.176720    0.052255
C      1.466635   -0.354928   -0.794825
O      2.542221   -0.721371    0.031781
O      3.491083   -1.148497   -0.779041
C     -0.224765   -0.893750    0.962547
C     -1.515176   -1.125892    0.797634
C     -2.118766   -0.263079   -0.248756
C     -0.936183    0.513461   -0.836866
H      1.532611    1.133534    1.590289
H      1.081417    2.211824    0.216356
H     -0.138887    1.790794    1.475307
H      1.788615    0.439874   -1.506752
H      1.128274   -1.239697   -1.383293
H      0.378954   -1.408411    1.703967
H     -2.072129   -1.847452    1.386243
H     -2.615844   -0.887219   -1.022050
H     -2.854721    0.427767    0.215804
H     -0.779274    0.192389   -1.890908
H     -1.161731    1.602983   -0.853184
20

C     -1.624433   -1.177567   -0.124202
C     -0.674951    0.027708   -0.021030
C     -1.403328    1.319879   -0.428543
C     -0.163816    0.159750    1.376834
C      1.156566    0.185627    1.434651
C      1.789864    0.082590    0.093973
O      2.707306   -0.982282    0.089832
O      3.433949   -0.836513   -1.002250
C      0.610767   -0.182620   -0.859512
H     -1.959404   -1.314244   -1.174857
H     -2.520348   -1.024201    0.515573
H     -1.114516   -2.108360    0.207126
H     -2.282179    1.496415    0.228769
H     -0.722951    2.195535   -0.346917
H     -1.758198    1.247680   -1.479115
H     -0.798031    0.260236    2.252502
H      1.709466    0.311888    2.359944
H      2.284311    1.055632   -0.135933
H      0.667378   -1.222190   -1.254257
H      0.662547    0.505036   -1.732585
20

C     -1.308960    1.333552    0.482120
C     -0.548842    0.030219    0.165321
C     -1.549737   -1.067581   -0.241349
C      0.204133   -0.421008    1.375521
C      1.477563   -0.663753    1.122049
C      1.832099   -0.418389   -0.298498
C      0.564362    0.200215   -0.917920
O      0.788444    1.561452   -1.215825
O      1.464004    1.592262   -2.349936
H     -2.080129    1.155681    1.262740
H     -1.815179    1.715680   -0.430266
H     -0.615157    2.115495    0.860319
H     -1.021311   -2.023376   -0.450550
H     -2.286870   -1.247698    0.571117
H     -2.102481   -0.764673   -1.156564
H     -0.246355   -0.581435    2.350523
H      2.173064   -1.038611    1.865749
H      2.707334    0.263881   -0.358770
H      2.076745   -1.384793   -0.789461
H      0.287274   -0.357120   -1.846320
22

C      0.086863    1.647694   -1.369274
C     -0.495808    0.243177   -1.147299
C      0.405161   -0.839128   -0.519669
C      1.844183   -0.487000   -0.104524
O      2.159643   -1.181102    1.072950
O      3.419054   -0.890881    1.338030
C     -0.776469   -0.262033    0.281239
C     -2.001095   -1.177941    0.393102
C     -0.529943    0.671862    1.482207
H      0.438310    2.153812   -0.451715
H     -0.702260    2.288504   -1.813958
H      0.926173    1.586561   -2.093041
H     -1.145705   -0.159277   -1.954332
H      0.240512   -1.861247   -0.924846
H      2.017189    0.598924    0.034011
H      2.514038   -0.822582   -0.927485
H     -1.883836   -1.847315    1.270886
H     -2.139717   -1.810006   -0.510557
H     -2.913347   -0.560758    0.532294
H     -1.275571    1.493995    1.463786
H      0.481153    1.114419    1.524477
H     -0.668527    0.100324    2.423716
22

C     -0.564590    2.232865   -0.682245
C     -0.191456    0.754052   -0.835005
C      0.877498    0.238281    0.138800
C      1.885845   -0.748364   -0.464087
O      2.230742   -1.700222    0.506327
O      3.123154   -2.488121   -0.062099
C     -0.586935   -0.208108    0.299305
C     -0.987149   -1.625914   -0.139766
C     -1.318113    0.354520    1.528647
H     -0.203074    2.679251    0.267161
H     -1.667398    2.342783   -0.741115
H     -0.111070    2.804088   -1.518454
H     -0.184984    0.323568   -1.859750
H      1.254555    0.967037    0.888770
H      2.787793   -0.166700   -0.758505
H      1.493828   -1.249361   -1.376602
H     -0.536495   -2.369318    0.550259
H     -0.678625   -1.861685   -1.178781
H     -2.091638   -1.727949   -0.092572
H     -2.357763    0.624789    1.248971
H     -0.817826    1.246176    1.959263
H     -1.356298   -0.421668    2.321479
22

C     -1.807512    1.502376    0.321385
C     -0.723769    0.474122    0.666230
C     -0.747048   -0.812428   -0.165638
C     -0.447156   -2.087891    0.630179
C      0.382877    0.215466   -0.380371
C      0.316963    0.955793   -1.727905
C      1.802776   -0.153507    0.118733
O      1.930026    0.010618    1.507774
O      3.157864   -0.368648    1.805989
H     -1.348899    2.509941    0.242152
H     -2.347893    1.270567   -0.619670
H     -2.554867    1.522958    1.141401
H     -0.456313    0.355571    1.737338
H     -1.523536   -0.872302   -0.958706
H      0.058674   -2.820855   -0.031796
H     -1.405268   -2.529468    0.974190
H      0.187826   -1.908910    1.522314
H     -0.697610    0.959826   -2.176079
H      0.997610    0.463203   -2.453752
H      0.649476    2.005344   -1.586960
H      2.540023    0.509143   -0.388891
H      2.035758   -1.200919   -0.177917
24

C     -3.215938    0.788486   -0.049816
C     -1.870316    0.555840   -0.739882
C     -0.766063    0.064095    0.227137
C     -1.066402   -1.360076    0.730547
C      0.608610    0.127083   -0.482786
C      1.793767   -0.077825    0.478051
C      3.133401    0.201323   -0.206887
O      3.341776   -0.720172   -1.244970
O      4.507518   -0.405841   -1.776276
H     -3.680806   -0.173465    0.248156
H     -3.089946    1.434980    0.844474
H     -3.908226    1.295332   -0.754853
H     -1.560970    1.524805   -1.189602
H     -2.003912   -0.171005   -1.570999
H     -0.738710    0.750214    1.103039
H     -0.301386   -1.691055    1.461190
H     -2.038936   -1.394657    1.261518
H     -1.092219   -2.078499   -0.116552
H      0.722019    1.127605   -0.956032
H      0.647352   -0.633608   -1.293584
H      1.692006    0.609679    1.345861
H      1.806829   -1.120883    0.858129
H      3.942334    0.104861    0.552476
H      3.138218    1.242784   -0.602644
24

C     -3.161041    0.436036   -0.573450
C     -1.826313   -0.200376   -0.967099
C     -0.679856    0.124529    0.021394
C     -0.905347   -0.572470    1.376116
C      0.675091   -0.292677   -0.607392
C      1.909896    0.179039    0.187498
C      3.192485   -0.222115   -0.550518
O      1.866416    1.579922    0.333177
O      2.606107    1.873892    1.386594
H     -3.584137   -0.052322    0.327929
H     -3.035145    1.523228   -0.384425
H     -3.888956    0.306004   -1.401984
H     -1.564002    0.187741   -1.975779
H     -1.955632   -1.301390   -1.056300
H     -0.668578    1.224200    0.188566
H     -1.878784   -0.277926    1.816733
H     -0.130905   -0.270290    2.109313
H     -0.883432   -1.676947    1.257959
H      0.704881   -1.400272   -0.712360
H      0.743262    0.138361   -1.631283
H      1.912476   -0.335803    1.176011
H      3.242961    0.275969   -1.542476
H      3.225983   -1.323197   -0.694968
H      4.082569    0.076863    0.042437
24

C     -2.838744   -0.443103   -0.372778
C     -1.364654   -0.223465   -0.714631
C     -0.618296    0.592783    0.365385
C     -0.497412   -0.170943    1.697198
C      0.744477    1.147224   -0.136992
C      1.683258    0.171678   -0.895256
C      2.197146   -0.961381   -0.004263
O      2.802120    0.887183   -1.368217
O      2.436487    1.464036   -2.498636
H     -2.941332   -1.080735    0.529814
H     -3.347229    0.529025   -0.199471
H     -3.341157   -0.957486   -1.218958
H     -0.880388   -1.213770   -0.854523
H     -1.317668    0.321985   -1.682593
H     -1.235642    1.493350    0.585904
H      0.227046    0.326148    2.376295
H     -1.479514   -0.181918    2.215256
H     -0.189517   -1.223213    1.545378
H      1.298902    1.605904    0.711124
H      0.513483    1.987274   -0.828665
H      1.142213   -0.300572   -1.748683
H      3.074565   -1.447199   -0.482279
H      1.423761   -1.745299    0.114513
H      2.508094   -0.577506    0.990771
24

C     -2.233963    0.741415   -0.557005
C     -1.131363    1.061894    0.456388
C     -0.231189   -0.143806    0.837787
C     -1.029996   -1.191772    1.633886
C      0.501125   -0.810413   -0.364469
C      1.314107    0.182811   -1.232761
C      2.434516    0.891614   -0.468831
O      1.360718   -1.816001    0.128497
O      1.531150   -2.687639   -0.848941
H     -2.843209    1.652932   -0.732529
H     -1.803519    0.428368   -1.529852
H     -2.907649   -0.052235   -0.174553
H     -0.507433    1.889649    0.059441
H     -1.610184    1.460267    1.377516
H      0.542149    0.245299    1.535848
H     -1.746399   -1.730901    0.979264
H     -0.342295   -1.937864    2.085533
H     -1.590815   -0.708576    2.462177
H     -0.283225   -1.265252   -1.015592
H      1.771920   -0.376629   -2.077045
H      0.645391    0.939281   -1.692890
H      3.041586    1.490999   -1.179532
H      2.017657    1.582724    0.292219
H      3.100921    0.153836    0.025446
24

C     -2.134291    0.832704   -0.613202
C     -1.062378    1.089005    0.449031
C     -0.222742   -0.152380    0.855910
C     -1.067623   -1.172614    1.638083
C      0.554152   -0.847459   -0.302231
C      1.447065    0.114428   -1.122802
C      2.542069    0.779142   -0.287623
O     -0.355218   -1.499018   -1.161853
O      0.302467   -2.489036   -1.737565
H     -2.745973    1.750546   -0.741122
H     -1.672102    0.599434   -1.593705
H     -2.811906    0.009058   -0.310210
H     -0.390477    1.896415    0.089575
H     -1.563519    1.492887    1.355837
H      0.534389    0.215123    1.582947
H     -1.833235   -1.648040    0.990966
H     -0.413860   -1.971902    2.048030
H     -1.578092   -0.678477    2.492086
H      1.225475   -1.599157    0.181979
H      1.946406   -0.466212   -1.928418
H      0.834133    0.892687   -1.623369
H      3.234251    1.330094   -0.958698
H      2.106537    1.507711    0.426697
H      3.124472    0.015061    0.269656
24

C     -2.689768   -0.368919   -0.198072
C     -1.459302   -0.677206   -1.049856
C     -0.380056    0.426569   -1.007509
C      0.313040    0.669677    0.367993
C      1.437541    1.714056    0.148970
C      0.898966   -0.647985    0.975036
C      1.878482   -1.402848    0.068602
O     -0.665431    1.214586    1.237539
O     -0.090106    1.482190    2.397292
H     -3.503501   -1.079112   -0.456093
H     -2.460693   -0.495772    0.879927
H     -3.050295    0.664248   -0.388488
H     -1.039575   -1.660968   -0.756250
H     -1.794843   -0.779346   -2.104843
H      0.386028    0.172790   -1.772182
H     -0.843182    1.378872   -1.349974
H      0.996405    2.698692   -0.117140
H      2.118547    1.412343   -0.674450
H      2.047987    1.844726    1.067875
H      1.438775   -0.415757    1.918724
H      0.070103   -1.331982    1.255492
H      2.245408   -2.304921    0.602100
H      2.757394   -0.773320   -0.178411
H      1.388077   -1.740613   -0.866284
24

C      3.334126   -0.437674    0.315327
C      1.903381   -0.763486   -0.105249
C      0.966794    0.429889    0.146179
C     -0.460785    0.208781   -0.415418
C     -1.244553   -0.830125    0.428577
C     -2.618081   -1.167290   -0.154420
C     -1.203954    1.559453   -0.503701
O     -1.421140    2.086083    0.780304
O     -2.058998    3.226493    0.599450
H      3.726518    0.416646   -0.276460
H      3.369668   -0.182824    1.396042
H      3.984412   -1.319913    0.136788
H      1.567499   -1.647849    0.474476
H      1.900260   -1.025605   -1.185538
H      1.414889    1.322241   -0.344977
H      0.915957    0.639959    1.237499
H     -0.367340   -0.180899   -1.453975
H     -0.673065   -1.779534    0.474355
H     -1.370152   -0.466133    1.471441
H     -3.318485   -0.315562   -0.030799
H     -3.044862   -2.038483    0.386125
H     -2.531871   -1.427801   -1.230701
H     -2.171707    1.422129   -1.035113
H     -0.598509    2.271505   -1.110213
24

C     -2.561525    0.034378    0.979408
C     -1.732075   -0.985367    0.199844
C     -0.858523   -0.343122   -0.893448
C      0.187573    0.689213   -0.392866
C      0.941721    1.279507   -1.598300
C      1.157350    0.148223    0.699589
C      1.993553   -1.054813    0.230063
O      2.014930    1.191953    1.106675
O      2.438709    0.889585    2.320573
H     -1.909191    0.665657    1.617573
H     -3.137851    0.680294    0.283445
H     -3.276244   -0.499529    1.640479
H     -1.113398   -1.585101    0.899135
H     -2.432134   -1.694173   -0.293338
H     -0.348201   -1.153325   -1.456695
H     -1.535401    0.159371   -1.619655
H     -0.370362    1.536854    0.062015
H      1.460353    0.485274   -2.174817
H      1.686753    2.034261   -1.270035
H      0.226656    1.788881   -2.279272
H      0.534513   -0.178759    1.564005
H      2.656397   -0.774965   -0.614313
H      1.342562   -1.899705   -0.072833
H      2.633836   -1.414594    1.062768
24

C     -2.749828    0.112157    0.534322
C     -1.986127   -0.946469   -0.260732
C     -0.478320   -0.965450    0.055538
C      0.284867    0.356050   -0.245953
C      0.090783    0.781935   -1.715354
C      1.803904    0.224488    0.068164
C      2.067145   -0.136243    1.539685
O      2.438587    1.453374   -0.211608
O      3.695321    1.175790   -0.507738
H     -2.476684    1.132179    0.193542
H     -2.534798    0.013504    1.619586
H     -3.840491   -0.023031    0.375977
H     -2.404277   -1.942561    0.001733
H     -2.162413   -0.805928   -1.347400
H     -0.013236   -1.794552   -0.521520
H     -0.378832   -1.217381    1.131838
H     -0.124847    1.162758    0.400487
H      0.394967   -0.036356   -2.402654
H      0.689660    1.685865   -1.952337
H     -0.966936    1.050691   -1.912263
H      2.213655   -0.592908   -0.574664
H      3.147890   -0.030269    1.772044
H      1.794412   -1.192209    1.743268
H      1.495600    0.534567    2.216039
24

C     -2.801804    0.616073    0.084402
C     -2.223979   -0.745650    0.468351
C     -0.755102   -0.673365    0.927318
C      0.244638   -0.121689   -0.122395
C      0.274682   -1.004303   -1.383794
C      1.651664   -0.019645    0.521073
C      2.657917    0.799622   -0.297687
O      2.177340    2.104381   -0.489977
O      3.101616    2.728679   -1.194321
H     -2.357757    0.975640   -0.866899
H     -3.898401    0.523091   -0.063230
H     -2.614672    1.359587    0.888101
H     -2.341290   -1.457017   -0.375125
H     -2.825740   -1.149945    1.311128
H     -0.436127   -1.694486    1.232271
H     -0.715819   -0.037033    1.839049
H     -0.078368    0.900210   -0.413103
H     -0.713602   -1.005807   -1.886114
H      0.553364   -2.048334   -1.125724
H      0.996552   -0.612690   -2.127458
H      1.568188    0.463853    1.519545
H      2.064154   -1.039555    0.685072
H      2.856163    0.305313   -1.273342
H      3.616382    0.833068    0.268553
22

C     -2.459258    0.529591   -1.121155
C     -1.764998   -0.687125   -0.502350
C     -0.442806   -0.368419    0.235700
C     -0.671209    0.545016    1.451637
C      0.626478    0.212171   -0.718636
C      1.994562    0.232172   -0.094527
C      2.688460   -0.892875    0.107602
O      3.964794   -0.886765    0.676120
O      4.564893    0.249679    1.057800
H     -3.394279    0.200143   -1.621256
H     -2.731339    1.270882   -0.342130
H     -1.813952    1.009033   -1.885549
H     -1.561307   -1.425267   -1.308602
H     -2.469802   -1.172970    0.207360
H     -0.068623   -1.341631    0.624799
H      0.247792    0.588701    2.073713
H     -0.926005    1.577960    1.134443
H     -1.492431    0.147353    2.085108
H      0.669137   -0.385239   -1.655855
H      0.355464    1.252706   -0.998782
H      2.424516    1.191207    0.165482
H      2.259912   -1.846322   -0.175039
22

C     -1.519430    0.294355   -1.681134
C     -1.520232   -0.608288   -0.444083
C     -0.694866   -0.072129    0.756204
C     -1.321985    1.200649    1.345651
C      0.799062    0.166543    0.433021
C      1.523788   -1.102649    0.066157
C      2.810112   -1.167893   -0.311677
O      3.685722   -0.077331   -0.410418
O      3.355739    1.169637   -0.050112
H     -0.504644    0.358041   -2.124437
H     -1.887836    1.311138   -1.436150
H     -2.195709   -0.139073   -2.447792
H     -1.144924   -1.609909   -0.741537
H     -2.573249   -0.755630   -0.118767
H     -0.746726   -0.846291    1.554795
H     -0.830788    1.453366    2.309604
H     -1.199287    2.063350    0.657868
H     -2.403793    1.045290    1.544415
H      0.888892    0.906832   -0.388928
H      1.290806    0.590476    1.335746
H      0.980050   -2.038423    0.111275
H      3.209299   -2.142060   -0.563818
22

C     -2.402052    0.611905    1.107279
C     -1.996039   -0.063504    0.026512
C     -0.685387    0.275480   -0.632271
C      0.525468   -0.299047    0.142414
C      0.482806   -1.836661    0.160042
C      1.864412    0.171884   -0.472811
C      2.150813    1.653712   -0.221613
O     -2.760444   -1.105873   -0.508927
O     -3.932030   -1.476034    0.027556
H     -1.799122    1.412238    1.518383
H     -3.337345    0.377404    1.597438
H     -0.686370   -0.118860   -1.672021
H     -0.610490    1.380420   -0.706939
H      0.480895    0.050710    1.198219
H      0.502720   -2.240593   -0.875009
H     -0.434297   -2.198141    0.670624
H      1.353817   -2.240839    0.718746
H      1.875171   -0.025608   -1.567206
H      2.700836   -0.405678   -0.021009
H      2.061748    1.890878    0.859785
H      1.458889    2.297784   -0.801271
H      3.186000    1.888424   -0.547923
22

C      2.854861    0.160855   -0.753729
C      2.182897   -0.709123    0.007743
C      0.948927   -0.313054    0.792021
O      1.256222    0.784566    1.622609
O      1.929569    0.302974    2.651568
C     -0.240441    0.050928   -0.140673
C     -0.602088   -1.133956   -1.059628
C     -1.468901    0.486100    0.699163
C     -2.599359    1.075097   -0.147208
H      2.534507    1.194432   -0.839892
H      3.738328   -0.161588   -1.294877
H      2.542116   -1.731472    0.079902
H      0.629731   -1.188354    1.408256
H      0.064702    0.907904   -0.781620
H      0.275456   -1.454645   -1.658388
H     -1.388940   -0.844462   -1.785320
H     -0.960630   -1.998547   -0.461026
H     -1.166243    1.269859    1.426306
H     -1.859146   -0.376652    1.282367
H     -2.211462    1.871390   -0.817319
H     -3.093879    0.287073   -0.751369
H     -3.366227    1.520676    0.521114
22

C      2.774263    0.353539   -1.643673
C      1.533520   -0.094395   -1.430214
C      0.812108    0.189345   -0.133281
O      1.561288   -0.354883    0.933213
O      1.563610    0.541740    1.902443
C     -0.627617   -0.403177   -0.144481
C     -0.607542   -1.943874   -0.131612
C     -1.489048    0.104549    1.037695
C     -1.800290    1.600626    0.962201
H      3.300742    0.923627   -0.884043
H      3.270403    0.151018   -2.587307
H      1.040300   -0.645671   -2.225720
H      0.747280    1.301527   -0.078175
H     -1.130280   -0.087440   -1.086768
H     -0.171880   -2.324988    0.816671
H     -0.017145   -2.344862   -0.980800
H     -1.641044   -2.339942   -0.227954
H     -0.994410   -0.121776    2.006544
H     -2.462260   -0.434273    1.032509
H     -0.898282    2.205850    1.186028
H     -2.191091    1.869356   -0.042078
H     -2.572624    1.854105    1.718805
22

C      3.192941    0.086083    0.548689
C      2.294758   -0.275651   -0.372493
C      1.053094    0.538713   -0.638696
C     -0.234649   -0.009022    0.046349
C     -0.558659   -1.445537   -0.455018
C     -1.400112    0.939534   -0.352373
C     -2.741586    0.595234    0.303823
O     -0.108767    0.056945    1.459399
O      0.646653   -0.947894    1.865364
H      4.072298   -0.526517    0.718568
H      3.057594    0.986081    1.140734
H      2.458458   -1.188027   -0.938043
H      1.225480    1.591678   -0.321258
H      0.901974    0.562810   -1.740225
H     -0.825413   -1.433589   -1.533674
H      0.306188   -2.129224   -0.329433
H     -1.402697   -1.880394    0.119510
H     -1.141395    1.980195   -0.055273
H     -1.537063    0.938487   -1.456603
H     -2.638317    0.526307    1.406969
H     -3.478008    1.393635    0.072758
H     -3.142773   -0.359845   -0.093193
22

C      3.168381    0.239127   -0.079788
C      2.112071   -0.353061    0.484848
C      0.862616   -0.669735   -0.295881
C     -0.362971    0.103270    0.247203
C     -1.674245   -0.404643   -0.404598
C     -2.097006   -1.786852    0.097723
C     -0.201639    1.618277   -0.002069
O     -1.235636    2.322980    0.635573
O     -1.039362    3.594588    0.344130
H      3.164120    0.514231   -1.130000
H      4.049531    0.456596    0.514943
H      2.149401   -0.606454    1.540317
H      0.997592   -0.449748   -1.378574
H      0.700273   -1.762072   -0.202025
H     -0.428292   -0.056523    1.347527
H     -2.505716    0.294546   -0.169371
H     -1.567670   -0.431360   -1.511264
H     -1.404669   -2.573619   -0.264150
H     -3.110678   -2.024090   -0.288841
H     -2.132536   -1.804602    1.207666
H      0.774901    1.963375    0.405665
H     -0.218466    1.815769   -1.099034
22

C      2.328589    1.560296    0.051031
C      1.661755    0.742049    0.870485
C      1.126938   -0.586697    0.405289
C     -0.031891   -0.453132   -0.620225
C     -0.150858   -1.752856   -1.432805
C     -1.405861   -0.111696    0.024186
C     -1.432671    1.291075    0.648014
O     -1.736706   -1.080206    0.994582
O     -3.048896   -1.042379    1.137163
H      2.495155    1.296872   -0.988983
H      2.717633    2.502262    0.423432
H      1.540160    1.023642    1.912192
H      1.975551   -1.147959   -0.044806
H      0.792082   -1.172621    1.287589
H      0.219119    0.346785   -1.352111
H     -0.370982   -2.614601   -0.766705
H     -0.960697   -1.666607   -2.188482
H      0.796698   -1.955111   -1.976637
H     -2.157828   -0.113040   -0.802390
H     -0.882427    1.305834    1.610822
H     -0.992453    2.038674   -0.045603
H     -2.482409    1.589417    0.853961
22

C      2.835700    0.757599    0.528698
C      2.070696   -0.287714    0.856404
C      1.179225   -0.966038   -0.150787
C     -0.022444   -0.086122   -0.572244
C     -0.755977   -0.751183   -1.750914
C     -0.971769    0.193514    0.627782
C     -2.062853    1.214980    0.271997
O     -1.561683   -1.011283    1.062951
O     -1.928906   -0.823151    2.317259
H      2.832867    1.158333   -0.480344
H      3.475920    1.216622    1.274877
H      2.111978   -0.676958    1.869407
H      1.793523   -1.226452   -1.040902
H      0.809619   -1.920603    0.282751
H      0.375655    0.885459   -0.941410
H     -1.217501   -1.712577   -1.440248
H     -1.543435   -0.082334   -2.154399
H     -0.044727   -0.953544   -2.580034
H     -0.355791    0.647083    1.440638
H     -2.590762    1.537464    1.194310
H     -1.615549    2.114942   -0.201054
H     -2.813786    0.771962   -0.414737
22

C     -2.077795    0.534141    1.495801
C     -1.969535    0.180994    0.211781
C     -1.058589   -0.934866   -0.235764
C      0.210858   -0.429822   -0.963644
C     -0.148181    0.268708   -2.284431
C      1.095055    0.494608   -0.092022
C      1.711773   -0.226758    1.110166
O      2.610276    0.636820    1.754713
O      3.106060   -0.048815    2.766911
H     -1.520403    0.017132    2.270387
H     -2.732279    1.351823    1.779343
H     -2.534598    0.731018   -0.534577
H     -0.771487   -1.578615    0.623184
H     -1.633562   -1.591746   -0.923465
H      0.813722   -1.325950   -1.232623
H     -0.682131    1.224245   -2.096394
H      0.774890    0.489901   -2.861728
H     -0.791522   -0.388349   -2.907691
H      1.929160    0.884551   -0.716738
H      0.510698    1.371718    0.261089
H      0.908852   -0.524382    1.819444
H      2.248740   -1.136357    0.756258
20

C      2.767653   -0.661366   -0.876895
C      1.901579   -0.425415   -0.072027
C      0.844085   -0.138562    0.910150
O      1.390017    0.682116    1.915878
O      0.611339    0.552101    2.974376
C     -0.386946    0.546665    0.245564
C     -0.031358    1.936805   -0.311409
C     -1.041502   -0.312130   -0.865464
C     -1.621496   -1.627941   -0.345023
H      3.527356   -0.868225   -1.583873
H      0.541828   -1.117933    1.345909
H     -1.153540    0.706083    1.036394
H      0.390649    2.582265    0.487447
H     -0.943140    2.437543   -0.701495
H      0.707201    1.855913   -1.137183
H     -1.877126    0.263958   -1.320488
H     -0.311495   -0.527887   -1.675280
H     -0.811083   -2.331674   -0.064194
H     -2.278807   -1.445908    0.531557
H     -2.225214   -2.106407   -1.144850
20

C      3.061234   -0.720632    1.398043
C      2.163511   -0.524765    0.617373
C      1.068784   -0.287068   -0.335347
O      1.479089    0.711883   -1.242488
O      1.077790    0.333448   -2.442102
C     -0.224471    0.141160    0.414033
C     -0.046251    1.494800    1.127684
C     -1.456844    0.212186   -0.519801
C     -1.869780   -1.150353   -1.079417
H      3.848928   -0.892242    2.083549
H      0.904221   -1.270126   -0.834121
H     -0.440758   -0.617945    1.200106
H      0.797714    1.454087    1.847693
H     -0.962281    1.748630    1.702780
H      0.146087    2.305910    0.393302
H     -2.322900    0.608919    0.054593
H     -1.270089    0.915763   -1.359326
H     -1.963912   -1.896568   -0.262194
H     -2.853812   -1.057333   -1.585568
H     -1.136259   -1.509753   -1.829697
20

C      3.462255    0.388863    0.001988
C      2.331119    0.248903   -0.391422
C      0.953641    0.072239   -0.876035
C     -0.135346    0.513297    0.148444
C     -0.043340   -0.315694    1.460695
C     -1.546573    0.323896   -0.482602
C     -1.948009   -1.110878   -0.850400
O     -0.035756    1.908374    0.405257
O      1.016827    2.135282    1.170480
H      4.454718    0.511958    0.347918
H      0.841079   -1.002490   -1.123749
H      0.841002    0.654238   -1.815707
H      0.917700   -0.144736    1.989185
H     -0.870125   -0.041509    2.150202
H     -0.093370   -1.403806    1.250568
H     -2.310769    0.719547    0.222681
H     -1.617286    0.945293   -1.402769
H     -1.972798   -1.766678    0.042861
H     -2.971841   -1.097685   -1.280219
H     -1.273127   -1.538412   -1.618285
20

C      3.210837    1.275381    0.915037
C      2.445037    0.531022    0.355500
C      1.514435   -0.379022   -0.326668
C      0.046745   -0.150191    0.111037
C     -0.812497   -1.360480   -0.333293
C     -2.200543   -1.387471    0.311011
C     -0.514191    1.169364   -0.469769
O      0.189604    2.269420    0.045399
O     -0.326582    3.334719   -0.537074
H      3.882492    1.929180    1.406225
H      1.833142   -1.413301   -0.075966
H      1.616772   -0.249790   -1.425551
H      0.015330   -0.094596    1.223174
H     -0.919421   -1.369745   -1.440240
H     -0.301170   -2.303557   -0.039945
H     -2.123332   -1.268181    1.412525
H     -2.849783   -0.590935   -0.105766
H     -2.685781   -2.363319    0.097558
H     -1.585082    1.274916   -0.192736
H     -0.436012    1.146587   -1.581366
20

C      2.943898    0.262112    1.128844
C      2.199642    0.503576    0.211808
C      1.290577    0.798144   -0.906758
C     -0.044398    0.020424   -0.812125
C      0.204480   -1.495011   -0.938266
C     -0.841102    0.383173    0.473878
C     -2.237155   -0.258974    0.479870
O     -0.984837    1.784547    0.544699
O     -1.127553    2.089450    1.821646
H      3.596663    0.049738    1.934193
H      1.806330    0.543741   -1.857366
H      1.095651    1.891103   -0.927943
H     -0.652987    0.328397   -1.691921
H      0.870652   -1.707545   -1.801510
H     -0.747686   -2.034174   -1.121647
H      0.676492   -1.896842   -0.016448
H     -0.273359   -0.006019    1.353766
H     -2.787803   -0.006236   -0.451239
H     -2.823379    0.112044    1.346949
H     -2.164126   -1.361646    0.578663
20

C      3.691705    0.091231   -0.166664
C      2.565977    0.447155    0.076981
C      1.193481    0.881251    0.374275
C      0.146936   -0.084219   -0.225734
C      0.182362   -1.445955    0.497008
C     -1.269279    0.559719   -0.196698
C     -2.275697   -0.232198   -1.038252
O     -1.757112    0.644246    1.125370
O     -1.482197    1.859398    1.562598
H      4.679735   -0.221638   -0.380623
H      1.071031    0.951964    1.476179
H      1.064547    1.897874   -0.054632
H      0.418637   -0.256064   -1.292423
H      1.202584   -1.881905    0.454951
H     -0.498733   -2.170821    0.006983
H     -0.109019   -1.336974    1.563215
H     -1.209127    1.565454   -0.681843
H     -2.504837   -1.212778   -0.572133
H     -3.225492    0.338873   -1.113895
H     -1.885503   -0.394613   -2.065570
20

C      3.009143    0.503320    1.328920
C      2.365514    0.528320    0.309927
C      1.579380    0.558661   -0.933446
C      0.198533   -0.117299   -0.782914
C      0.347267   -1.614962   -0.461071
C     -0.676265    0.619104    0.261117
C     -2.147674    0.196562    0.210479
O     -2.890471    1.007634    1.081685
O     -4.139723    0.595871    0.980398
H      3.573577    0.481040    2.223752
H      1.446388    1.617279   -1.243032
H      2.160429    0.051013   -1.732829
H     -0.301747   -0.036680   -1.773833
H      1.054055   -2.092937   -1.172439
H     -0.627565   -2.134549   -0.564001
H      0.726245   -1.762931    0.572603
H     -0.628203    1.713251    0.065547
H     -0.281434    0.442497    1.285762
H     -2.527604    0.312120   -0.830345
H     -2.239844   -0.867313    0.522814
22

C     -2.180754    0.591600   -1.402604
C     -2.071032    0.170259    0.062330
C     -0.654340    0.352005    0.637512
C      0.443893   -0.495784   -0.050712
C      0.171336   -2.001848    0.078546
C      1.790488   -0.170009    0.550073
C      2.414533    0.976631    0.282625
O      3.658528    1.238497    0.846336
O      4.291413    2.388102    0.582082
H     -1.643892   -0.125211   -2.057754
H     -3.249068    0.598530   -1.705279
H     -1.765492    1.611637   -1.547057
H     -2.412646   -0.879283    0.178950
H     -2.766225    0.802422    0.656337
H     -0.683539    0.098937    1.720472
H     -0.389096    1.429833    0.565600
H      0.486856   -0.249732   -1.133936
H      0.016182   -2.284626    1.142037
H     -0.723799   -2.289479   -0.510455
H      1.029333   -2.582287   -0.324168
H      2.277702   -0.889463    1.198997
H      1.959620    1.709270   -0.374051
22

C     -2.629193    1.191830   -0.775151
C     -1.619415    0.051516   -0.682506
C     -0.638613    0.272139    0.479199
C      0.350899   -0.902993    0.639809
C      1.207881   -0.738572    1.901939
C      1.212259   -1.122412   -0.587222
C      2.086853   -0.235971   -1.074044
O      2.289419    1.001970   -0.472625
O      3.171876    1.867154   -0.986802
H     -3.320892    1.007844   -1.624082
H     -3.224918    1.257271    0.160183
H     -2.106197    2.156963   -0.945743
H     -1.063596   -0.007699   -1.642995
H     -2.168713   -0.903564   -0.533904
H     -1.224477    0.372987    1.419785
H     -0.090162    1.225870    0.327550
H     -0.250972   -1.827751    0.786275
H      0.559024   -0.749261    2.803655
H      1.929999   -1.578741    1.987506
H      1.768667    0.218828    1.888903
H      1.107192   -2.066676   -1.107979
H      2.653079   -0.490733   -1.961751
22

C     -2.198652    0.520794   -1.623591
C     -2.038337    0.292740   -0.317762
O     -3.059953    0.700708    0.545964
O     -2.984469    0.520822    1.871481
C     -0.783454   -0.385766    0.213413
C     -0.658665   -1.809023   -0.354684
C      0.466739    0.475890   -0.080216
C      1.706835    0.005116    0.695489
C      2.884489    0.950754    0.475983
H     -3.096253    1.005404   -1.985909
H     -1.445358    0.231757   -2.344700
H     -0.871565   -0.486710    1.315638
H     -1.615850   -2.357750   -0.222457
H     -0.404713   -1.788088   -1.435696
H      0.127439   -2.376245    0.185304
H      0.690442    0.467169   -1.169645
H      0.248890    1.527406    0.212748
H      1.479514   -0.036129    1.782905
H      2.005975   -1.009312    0.357289
H      2.634187    1.970558    0.838466
H      3.145047    0.998251   -0.602900
H      3.767713    0.581653    1.038761
22

C     -1.813078    1.759301    0.434724
C     -1.546366    0.467507    0.658542
C     -0.949995   -0.437790   -0.415439
C     -0.917124   -1.903064    0.082670
C      0.489481    0.029616   -0.769858
C      1.472028    0.069832    0.417327
C      2.812227    0.667746   -0.002136
O     -1.709221   -0.360030   -1.610503
O     -2.960966   -0.677164   -1.324865
H     -2.242725    2.368897    1.222873
H     -1.612604    2.214999   -0.529705
H     -1.780471    0.056140    1.636924
H     -0.354521   -1.994663    1.034802
H     -0.445525   -2.560308   -0.678886
H     -1.943372   -2.280312    0.277541
H      0.434186    1.044543   -1.222186
H      0.905071   -0.642514   -1.553393
H      1.057443    0.684393    1.244358
H      1.657495   -0.956578    0.796635
H      3.265949    0.064311   -0.817081
H      2.676319    1.713452   -0.351564
H      3.505770    0.671687    0.865102
22

C     -2.456822   -2.013071    0.474258
C     -1.660724   -0.998737    0.826214
C     -0.768074   -0.296163   -0.171377
C      0.668973   -0.218964    0.391730
C      1.684833    0.305332   -0.634991
C      3.109915    0.209953   -0.097031
C     -1.358858    1.085972   -0.506061
O     -1.335806    1.920547    0.623760
O     -1.855899    3.068635    0.234578
H     -2.476542   -2.385741   -0.545199
H     -3.100567   -2.478094    1.213743
H     -1.691261   -0.640366    1.851660
H     -0.734480   -0.887368   -1.114785
H      0.692467    0.424319    1.299028
H      0.979472   -1.242719    0.699757
H      1.473292    1.369525   -0.870990
H      1.615624   -0.287697   -1.572739
H      3.373624   -0.848337    0.113947
H      3.819950    0.607911   -0.852362
H      3.211000    0.806360    0.834760
H     -2.407641    0.952315   -0.858916
H     -0.782475    1.546387   -1.338985
22

C     -1.745167    1.838904    0.018240
C     -1.574481    0.543681   -0.263689
C     -0.585585   -0.317557    0.490869
C     -1.328278   -1.491350    1.139898
C      0.557584   -0.818090   -0.434308
C      1.402759    0.334472   -1.019175
C      2.192257    1.107156    0.038940
O      0.016640   -1.551933   -1.514477
O      0.203679   -2.832438   -1.250842
H     -1.179544    2.322204    0.808767
H     -2.458058    2.427436   -0.549881
H     -2.153867    0.101631   -1.069520
H     -0.136470    0.260800    1.327501
H     -1.852192   -2.104706    0.375826
H     -0.615269   -2.138216    1.694315
H     -2.081822   -1.110265    1.862336
H      1.255088   -1.439170    0.181942
H      0.761378    1.040127   -1.589665
H      2.132213   -0.098809   -1.738069
H      2.900189    1.799581   -0.463437
H      1.513707    1.715302    0.671611
H      2.775240    0.411240    0.678698
22

C     -2.324529    1.352516   -1.084283
C     -2.074286    0.319476   -0.273505
C     -0.712470    0.115492    0.356030
C     -0.830184   -0.861452    1.537689
C      0.309005   -0.360680   -0.715818
C      1.749279   -0.530547   -0.174771
C      2.340009    0.761479    0.390748
O     -0.133304   -1.585085   -1.261073
O      0.375448   -1.668722   -2.476881
H     -1.552448    2.078406   -1.320532
H     -3.312862    1.478354   -1.514207
H     -2.882327   -0.373109   -0.051900
H     -0.389288    1.096588    0.767032
H     -1.075459   -1.885924    1.184996
H      0.114477   -0.891407    2.118390
H     -1.630109   -0.524979    2.232001
H      0.339826    0.428496   -1.506525
H      1.789767   -1.329190    0.595367
H      2.402750   -0.860399   -1.011379
H      2.221793    1.594637   -0.334184
H      1.851884    1.029788    1.350356
H      3.423027    0.616265    0.588329
22

C     -2.175960    1.056259    0.775112
C     -1.577205   -0.124345    0.971958
C     -0.822343   -0.857436   -0.117397
C     -1.763291   -1.239447   -1.267163
C      0.386725   -0.048924   -0.642555
C      1.440915    0.230544    0.446412
C      2.580978    1.076849   -0.131049
O      1.952602   -0.992862    0.922889
O      2.437673   -0.756196    2.127859
H     -2.149465    1.548496   -0.191423
H     -2.701291    1.539456    1.592341
H     -1.630432   -0.576580    1.958014
H     -0.443307   -1.808519    0.317381
H     -2.139841   -0.335246   -1.791209
H     -1.226908   -1.876385   -2.002543
H     -2.629246   -1.816602   -0.877615
H      0.870915   -0.620578   -1.465664
H      0.032889    0.913443   -1.073651
H      0.952690    0.813099    1.263823
H      3.324805    1.305604    0.661115
H      2.186731    2.038365   -0.523920
H      3.092367    0.531004   -0.952714
22

C     -2.162451    2.010521    0.581709
C     -1.893306    0.803389    1.093483
C     -1.016060   -0.209827    0.390235
C     -1.640797   -0.623448   -0.951453
C      0.424642    0.333910    0.231445
C      1.440604   -0.737621   -0.210474
C      2.835396   -0.115016   -0.341051
O      1.472483   -1.773556    0.744221
O      1.931099   -2.845254    0.124230
H     -1.757215    2.319608   -0.376299
H     -2.797852    2.700543    1.127164
H     -2.322901    0.538783    2.055452
H     -0.985857   -1.112165    1.039482
H     -1.572708    0.200399   -1.693407
H     -1.128336   -1.518670   -1.359971
H     -2.710420   -0.889378   -0.809687
H      0.757869    0.752258    1.207959
H      0.427592    1.166819   -0.506113
H      1.137286   -1.116331   -1.214450
H      3.180327    0.275617    0.640300
H      2.819346    0.716601   -1.077589
H      3.561260   -0.877182   -0.695186
22

C     -2.243280    1.270364    1.156953
C     -1.907556    0.720873   -0.014266
C     -1.284813   -0.655616   -0.095354
C     -1.330025   -1.187492   -1.534472
C      0.148161   -0.679823    0.487543
C      1.133234    0.259113   -0.232324
C      2.500154    0.250021    0.451516
O      3.369661    1.107038   -0.239487
O      4.520071    1.047135    0.403336
H     -2.073833    0.744227    2.091334
H     -2.696785    2.255779    1.184079
H     -2.111228    1.276435   -0.925926
H     -1.905273   -1.346599    0.518467
H     -2.386208   -1.299838   -1.860754
H     -0.843000   -2.184144   -1.593108
H     -0.821984   -0.493905   -2.237124
H      0.538078   -1.720574    0.441287
H      0.100384   -0.401767    1.563319
H      1.264686   -0.066654   -1.285960
H      0.740116    1.298624   -0.229137
H      2.384515    0.594858    1.504677
H      2.904924   -0.788056    0.445400
20

C     -1.538913    1.729733   -0.016504
C     -1.588999    0.712591   -0.884921
C     -0.996540   -0.658325   -0.623849
C     -1.411349   -1.246914    0.733928
C      0.528082   -0.704484   -0.872747
C      1.361526    0.047083    0.131477
C      2.686936    0.130097   -0.017694
O      3.497752    0.812374    0.893435
O      2.991173    1.426771    1.972002
H     -1.075906    1.632406    0.957259
H     -1.991600    2.681135   -0.276112
H     -2.100544    0.873073   -1.829869
H     -1.442481   -1.329187   -1.391862
H     -2.519327   -1.273020    0.810983
H     -1.033437   -2.287382    0.826040
H     -1.014730   -0.653981    1.582488
H      0.733930   -0.296608   -1.887265
H      0.855911   -1.767329   -0.874299
H      0.897074    0.514624    0.985472
H      3.161444   -0.342655   -0.868870
20

C      2.133708    0.980891    1.211093
C      1.483202    0.782100    0.060577
C      0.900710   -0.567718   -0.298051
C      0.537613   -0.621224   -1.788238
C     -0.304596   -0.933331    0.598023
C     -1.432337    0.064388    0.512233
C     -2.468315   -0.151183   -0.306239
O     -1.357602    1.219546    1.298213
O     -2.311515    2.161205    1.270798
H      2.259374    0.176406    1.929177
H      2.548931    1.957323    1.438254
H      1.395043    1.611332   -0.636485
H      1.688722   -1.336172   -0.132140
H      1.448895   -0.468227   -2.405266
H      0.109341   -1.613750   -2.044196
H     -0.199587    0.167812   -2.048593
H     -0.665180   -1.952589    0.334310
H      0.030962   -0.992288    1.655805
H     -3.281142    0.558470   -0.381489
H     -2.516227   -1.042993   -0.918693
20

C     -2.509487    0.961484    0.261184
C     -1.659619    0.700848   -0.739448
C     -0.421738   -0.155266   -0.567101
C     -0.813492   -1.590563   -0.178650
C      0.566127    0.476747    0.447360
C      1.860115   -0.306010    0.524440
C      2.724956   -0.360125   -0.494122
O      0.835376    1.809253    0.072099
O      1.310702    2.414709    1.145153
H     -2.347878    0.562712    1.257244
H     -3.381266    1.582458    0.082964
H     -1.865166    1.122902   -1.719003
H      0.076420   -0.204359   -1.560627
H     -1.560802   -1.990747   -0.897067
H      0.074910   -2.255955   -0.208459
H     -1.246240   -1.622087    0.843841
H      0.083991    0.447577    1.453789
H      2.101427   -0.826544    1.446545
H      3.645009   -0.926674   -0.394793
H      2.526655    0.159640   -1.426255
20

C      2.628306    0.770484   -0.659393
C      1.745552   -0.230849   -0.720138
C      0.989056   -0.707164    0.498005
C     -0.533448   -0.377249    0.451417
C     -1.202718   -1.013541   -0.793577
C     -0.726008    1.130246    0.399881
C     -1.936579    1.697289    0.468232
O     -1.156844   -0.832176    1.640506
O     -1.063739   -2.150262    1.676133
H      2.835611    1.281170    0.275956
H      3.149931    1.088146   -1.556293
H      1.562326   -0.711846   -1.676151
H      1.137871   -1.805994    0.565459
H      1.427353   -0.272769    1.424440
H     -2.308842   -0.949900   -0.715242
H     -0.890843   -0.491718   -1.723731
H     -0.925632   -2.085185   -0.888787
H      0.135841    1.788012    0.334970
H     -2.835423    1.095355    0.557006
H     -2.031771    2.777951    0.441309
20

C      2.688561    1.093025    0.483122
C      1.970344    0.660766   -0.557416
C      0.998723   -0.483246   -0.430979
C     -0.252447   -0.104307    0.392968
C     -1.069567   -1.337368    0.718605
C     -1.630944   -2.107657   -0.221051
C     -1.108655    0.961042   -0.318342
O     -2.215112    1.293317    0.480024
O     -2.894623    2.194926   -0.202398
H      2.586646    0.634633    1.462061
H      3.389903    1.911175    0.356079
H      2.111666    1.126924   -1.528057
H      0.694368   -0.802981   -1.451114
H      1.520588   -1.342899    0.045062
H      0.084484    0.325049    1.362666
H     -1.204901   -1.608306    1.761760
H     -1.523354   -1.879340   -1.276324
H     -2.206777   -2.980797    0.067770
H     -1.448772    0.574815   -1.306338
H     -0.490134    1.871228   -0.489005
20

C      2.442706    0.789787   -0.912246
C      1.786888    0.780115    0.251882
C      1.011916   -0.425329    0.716746
C     -0.255049   -0.664747   -0.129562
C     -0.957556   -1.952915    0.312471
C     -1.209361    0.504556   -0.014606
C     -1.508153    1.244985   -1.088717
O     -1.761245    0.796954    1.238779
O     -2.609120    1.819177    1.422246
H      2.431265   -0.075483   -1.567909
H      3.000834    1.670225   -1.213373
H      1.834142    1.655185    0.893271
H      0.728767   -0.279057    1.782228
H      1.674521   -1.317498    0.668905
H      0.053495   -0.813846   -1.189192
H     -1.253858   -1.896273    1.382198
H     -1.866699   -2.122493   -0.303606
H     -0.280781   -2.823413    0.176240
H     -1.077129    1.024707   -2.057225
H     -2.185582    2.085363   -1.019438
20

C     -2.261813    1.460857    0.876051
C     -1.505177    1.304353   -0.214054
C     -1.085477   -0.058348   -0.700232
C     -0.058458   -0.724031    0.241249
C      0.283393   -2.140537   -0.237513
C      1.193759    0.109123    0.402831
C      2.000107    0.412451   -0.622777
O      3.151207    1.187272   -0.458086
O      3.513701    1.673226    0.737628
H     -2.557170    2.455564    1.193404
H     -2.593889    0.603974    1.454175
H     -1.206323    2.180834   -0.781381
H     -1.988622   -0.701664   -0.787613
H     -0.655430    0.042686   -1.719932
H     -0.525508   -0.827761    1.245715
H      1.023346   -2.607687    0.447270
H      0.704524   -2.124133   -1.265241
H     -0.630941   -2.771548   -0.240786
H      1.430251    0.470417    1.395722
H      1.768521    0.054953   -1.617336
18

C     -3.067684    0.574340    0.777939
C     -2.000832    0.056805    0.559788
C     -0.695778   -0.576588    0.293980
O     -0.907631   -1.907743   -0.116688
O     -1.120358   -2.613046    0.979540
C      0.061499    0.187904   -0.819119
C      0.409464    1.627787   -0.404352
C      1.312918   -0.552109   -1.244973
C      2.328097   -0.803967   -0.409871
H     -4.003945    1.028927    0.969216
H     -0.087602   -0.537777    1.228750
H     -0.600609    0.248597   -1.712470
H      0.993587    2.126332   -1.207492
H     -0.515998    2.219417   -0.242093
H      1.006344    1.638793    0.532364
H      1.387513   -0.895483   -2.272784
H      3.201796   -1.339921   -0.765915
H      2.299221   -0.482267    0.626014
18

C      3.312628   -0.244287   -0.747622
C      2.293739    0.263470   -0.351006
C      1.050432    0.883086    0.133211
C     -0.151709   -0.103329    0.103205
C     -0.511000   -0.424840   -1.360734
C     -1.361841    0.548170    0.762662
C     -2.489084   -0.128036    1.013418
O      0.176071   -1.322134    0.748249
O      0.444781   -1.049787    2.013851
H      4.206760   -0.690432   -1.095940
H      0.831655    1.775357   -0.492744
H      1.228356    1.242866    1.169552
H     -0.789489    0.500197   -1.910901
H     -1.364739   -1.133958   -1.409299
H      0.346734   -0.901793   -1.880838
H     -1.313116    1.592160    1.061451
H     -3.325563    0.370274    1.492459
H     -2.584616   -1.176982    0.751026
18

C      3.422101    0.057604   -0.192709
C      2.292484    0.111274   -0.610320
C      0.915528    0.177166   -1.119461
C     -0.098799   -0.370198   -0.093248
C     -1.465004   -0.496989   -0.731674
C     -2.435865   -1.225585   -0.171731
C     -0.174604    0.510313    1.171054
O     -0.616797    1.802667    0.842590
O     -0.646907    2.472986    1.978325
H      4.413519    0.010483    0.174353
H      0.870053   -0.430517   -2.048983
H      0.676945    1.229308   -1.385143
H      0.235093   -1.389611    0.207599
H     -1.666186   -0.006208   -1.680474
H     -2.273984   -1.746861    0.766802
H     -3.402820   -1.306614   -0.657463
H     -0.874316    0.042321    1.900597
H      0.829561    0.558460    1.649885
18

C      2.713773    0.963872    1.369567
C      1.938275    0.127935    0.978362
C      0.991581   -0.890107    0.501542
C      0.112308   -0.348076   -0.643458
C     -0.763907   -1.460698   -1.233921
C     -0.729927    0.836852   -0.213367
C     -1.655043    0.722668    0.749748
O     -0.509355    2.061489   -0.854153
O     -1.201815    3.165466   -0.538811
H      3.394207    1.698094    1.712772
H      1.579117   -1.760925    0.139713
H      0.366588   -1.230702    1.353917
H      0.790083   -0.008770   -1.459334
H     -1.396253   -1.055654   -2.052917
H     -1.421677   -1.906233   -0.457711
H     -0.124153   -2.264464   -1.656906
H     -2.253560    1.570112    1.055452
H     -1.830243   -0.220859    1.249506
18

C     -2.577054    1.992539   -0.130614
C     -1.895503    1.066597   -0.493060
C     -1.063534   -0.061637   -0.934574
C     -0.379665   -0.757463    0.259152
C      0.361109   -2.020818   -0.196993
C      0.549844    0.171401    1.008872
C      1.620545    0.735151    0.447251
O      2.430231    1.582437    1.195762
O      3.506382    2.153190    0.640683
H     -3.175094    2.805403    0.187935
H     -1.720990   -0.785932   -1.461426
H     -0.309541    0.307378   -1.661761
H     -1.173767   -1.084333    0.967782
H     -0.356532   -2.743207   -0.641232
H      0.851969   -2.511086    0.670992
H      1.133569   -1.777576   -0.957340
H      0.329528    0.387313    2.047551
H      1.868503    0.540644   -0.588971
20

C     -2.164485    2.057088    0.031729
C     -1.658074    0.976664   -0.143183
C     -1.038258   -0.344061   -0.357563
C     -1.930650   -1.392938    0.337342
C      0.384031   -0.346249    0.270294
C      1.362420    0.602115   -0.445346
C      2.742491    0.560937    0.204615
O     -0.997028   -0.569323   -1.753957
O     -0.449381   -1.754773   -1.957950
H     -2.608497    3.005251    0.185347
H     -2.936432   -1.418488   -0.135536
H     -1.485223   -2.407785    0.262234
H     -2.051637   -1.153507    1.416685
H      0.314508   -0.056195    1.343189
H      0.801695   -1.377020    0.240694
H      0.982594    1.645471   -0.403207
H      1.463931    0.308427   -1.512181
H      3.426326    1.253205   -0.330322
H      2.677894    0.876764    1.267690
H      3.163775   -0.465583    0.151462
20

C      1.141406    2.597299    0.815731
C      1.002335    1.582232    0.180081
C      0.831327    0.341291   -0.597603
C     -0.314879   -0.517224   -0.022935
C     -1.687539    0.147297   -0.211445
C     -2.807277   -0.739531    0.325544
C      2.152616   -0.442421   -0.631020
O      2.531216   -0.825443    0.666837
O      3.664061   -1.487450    0.530921
H      1.263231    3.488051    1.373852
H      0.580190    0.623589   -1.643542
H     -0.326339   -1.500112   -0.544285
H     -0.139569   -0.708072    1.059555
H     -1.716541    1.119754    0.325778
H     -1.867178    0.336936   -1.292093
H     -3.784911   -0.233994    0.178382
H     -2.824542   -1.709788   -0.215142
H     -2.663959   -0.926649    1.411140
H      2.023137   -1.343406   -1.273611
H      2.943214    0.197641   -1.087052
20

C      1.792344   -1.602882    1.668035
C      1.356090   -0.677510    1.029983
C      0.821392    0.454130    0.250804
C      1.978366    1.203778   -0.419568
C     -0.220305   -0.016107   -0.797668
C     -1.465773   -0.676206   -0.156322
C     -2.302532    0.296863    0.675369
O      0.392729   -0.933142   -1.678525
O     -0.272892   -0.872262   -2.817459
H      2.174918   -2.415307    2.227827
H      0.342861    1.163129    0.957963
H      2.687306    1.580425    0.349219
H      2.531739    0.539918   -1.118500
H      1.591093    2.077147   -0.986472
H     -0.557001    0.893735   -1.352976
H     -1.168530   -1.540986    0.474879
H     -2.116554   -1.071672   -0.966082
H     -2.532580    1.212982    0.091121
H     -3.259758   -0.189681    0.958393
H     -1.772912    0.573646    1.609979
20

C     -1.980754    2.039074   -1.136930
C     -1.631534    1.169550   -0.378183
C     -1.204421    0.107341    0.549934
C     -1.809004   -1.237049    0.126356
C      0.342396    0.056265    0.694907
C      1.063077   -0.239302   -0.639155
C      2.576936   -0.339558   -0.454770
O      0.812027    1.286696    1.202333
O      0.634473    1.252159    2.510395
H     -2.286799    2.802154   -1.803128
H     -1.631160    0.352485    1.546774
H     -2.915575   -1.198963    0.221906
H     -1.435238   -2.051971    0.782029
H     -1.563882   -1.478131   -0.929503
H      0.600024   -0.777628    1.393100
H      0.847425    0.561737   -1.378746
H      0.711331   -1.204669   -1.058761
H      2.992374    0.627358   -0.100174
H      2.825197   -1.136970    0.277660
H      3.053106   -0.590574   -1.426047
20

C      3.153725    1.443534    1.022449
C      2.285318    0.843129    0.439932
C      1.224838    0.110802   -0.272002
C      1.532536   -1.390692   -0.223983
C     -0.145298    0.462194    0.350836
C     -1.345375   -0.078100   -0.455273
C     -2.630716    0.648422   -0.040037
O     -1.491675   -1.457184   -0.207455
O     -2.144507   -1.960115   -1.239122
H      3.915792    1.970401    1.533837
H      1.243074    0.444731   -1.332193
H      0.868811   -1.945530   -0.918013
H      1.403345   -1.787984    0.805949
H      2.577720   -1.581495   -0.551389
H     -0.222096    1.572598    0.395846
H     -0.197826    0.087821    1.397988
H     -1.160600    0.126364   -1.537542
H     -2.542989    1.737233   -0.242598
H     -2.830196    0.494523    1.042201
H     -3.493880    0.259347   -0.620338
20

C      1.882901    2.228039   -0.110731
C      1.489520    1.090477   -0.181362
C      1.007804   -0.298797   -0.268693
C      2.118283   -1.249047    0.188101
C     -0.261334   -0.500111    0.588983
C     -1.476133    0.350294    0.141676
C     -2.006096   -0.094252   -1.224748
O     -2.517761    0.208319    1.079631
O     -2.253033    1.041114    2.069709
H      2.227756    3.226528   -0.048541
H      0.787594   -0.528982   -1.331527
H      1.783849   -2.303747    0.087865
H      2.389022   -1.058780    1.249549
H      3.023508   -1.114265   -0.442741
H     -0.017835   -0.251653    1.646089
H     -0.551638   -1.574105    0.570518
H     -1.181109    1.422461    0.046280
H     -2.216056   -1.185237   -1.228936
H     -2.949028    0.446756   -1.453225
H     -1.280212    0.144988   -2.028805
20

C     -2.144064    0.161055    2.237083
C     -1.772028   -0.128362    1.127288
C     -1.316419   -0.482829   -0.228193
C     -2.316099    0.052908   -1.256693
C      0.093896    0.078058   -0.497634
C      1.164121   -0.596797    0.377663
C      2.568157   -0.083081    0.053665
O      2.667910    1.277784    0.382546
O      3.898905    1.634028    0.069840
H     -2.470229    0.415221    3.211152
H     -1.294125   -1.591300   -0.312558
H     -3.327822   -0.364802   -1.063288
H     -2.370621    1.162493   -1.212044
H     -2.010098   -0.249469   -2.280966
H      0.353004   -0.096382   -1.565554
H      0.100169    1.177003   -0.321504
H      0.952373   -0.411069    1.453068
H      1.140861   -1.695057    0.205320
H      2.779433   -0.239587   -1.029012
H      3.302675   -0.670722    0.649821
18

C     -1.995107    2.433337   -0.586765
C     -1.339967    1.430273   -0.449374
C     -0.535548    0.198628   -0.280798
C     -1.362215   -0.846704    0.502236
C      0.736337    0.576344    0.516511
C      1.652902   -0.596174    0.763227
C      2.469358   -1.068769   -0.183076
O     -0.141762   -0.303021   -1.545267
O     -1.235426   -0.592377   -2.230202
H     -2.570021    3.313540   -0.707267
H     -1.554839   -0.497826    1.540043
H     -2.344823   -1.025710    0.014734
H     -0.820445   -1.815252    0.547825
H      0.443397    0.997901    1.504026
H      1.301961    1.371989   -0.018934
H      1.673443   -1.047224    1.750985
H      3.125743   -1.904809    0.035082
H      2.497014   -0.624146   -1.172985
18

C     -2.607890    1.966958    0.336043
C     -1.703690    1.243412    0.000183
C     -0.599052    0.359512   -0.410962
C      0.725449    0.900033    0.159807
C      1.913568    0.185613   -0.429419
C      2.693280   -0.613840    0.304210
C     -0.878437   -1.078198    0.059066
O     -2.067384   -1.547858   -0.522873
O     -2.238257   -2.770444   -0.057622
H     -3.401447    2.601876    0.630978
H     -0.549279    0.373704   -1.522268
H      0.721457    0.824804    1.270762
H      0.827102    1.977493   -0.096592
H      2.124650    0.303995   -1.488193
H      2.501600   -0.770018    1.361365
H      3.532730   -1.123816   -0.156949
H     -0.960165   -1.097496    1.170977
H     -0.034236   -1.735730   -0.248506
18

C     -1.331051    2.305782   -0.591882
C     -1.057255    1.131558   -0.599892
C     -0.720147   -0.304335   -0.609763
C     -1.961273   -1.110572   -0.207889
C      0.470548   -0.595579    0.332290
C      1.700785    0.155820   -0.129953
C      2.252782    1.128531    0.601339
O      0.748527   -1.976341    0.313966
O      1.461135   -2.231306    1.396164
H     -1.570901    3.336408   -0.584515
H     -0.443549   -0.587717   -1.649328
H     -2.262342   -0.875425    0.836131
H     -2.809239   -0.874960   -0.886926
H     -1.758515   -2.199625   -0.285958
H      0.175440   -0.274270    1.362233
H      2.136882   -0.091989   -1.093545
H      1.838910    1.412160    1.564036
H      3.129262    1.651859    0.233491
18

C     -1.040153   -2.521305   -0.008727
C     -0.961325   -1.318525    0.022463
C     -0.865591    0.151078    0.062531
C     -2.010728    0.759230   -0.751329
C      0.497027    0.628733   -0.475675
C      1.639840    0.178989    0.406448
C      1.938086    0.854645    1.515321
O      2.387370   -0.959650    0.095329
O      2.133133   -1.690459   -0.998467
H     -1.108584   -3.576912   -0.036344
H     -0.979475    0.480167    1.118598
H     -1.939287    0.456786   -1.818820
H     -2.990155    0.423152   -0.347337
H     -1.976179    1.867965   -0.690279
H      0.646777    0.262154   -1.514322
H      0.502627    1.740247   -0.532438
H      2.749986    0.527946    2.152379
H      1.376633    1.735759    1.800668
18

C     -1.183792    2.165941   -0.806404
C     -1.023568    0.980426   -0.655198
C     -0.828124   -0.468307   -0.472191
C     -2.185053   -1.136735   -0.235046
C      0.130113   -0.754395    0.700301
C      1.540489   -0.333113    0.389792
C      1.970912    0.910512    0.626888
O      3.278189    1.311719    0.339901
O      4.175884    0.471758   -0.194801
H     -1.323728    3.206461   -0.938588
H     -0.396017   -0.884854   -1.408589
H     -2.867085   -0.936558   -1.089606
H     -2.654704   -0.754095    0.697248
H     -2.059500   -2.237061   -0.147089
H     -0.228030   -0.262275    1.632506
H      0.145351   -1.848983    0.894918
H      2.212438   -1.070876   -0.030283
H      1.296224    1.640435    1.056252
16

C     -2.666868    0.040685    1.364671
C     -1.558494    0.223229    0.926172
C     -0.204403    0.448111    0.391306
C     -0.287004    1.475020   -0.747593
C      0.421959   -0.888906   -0.074495
C      1.810064   -0.681507   -0.513795
C      2.948084   -0.512325   -0.874464
O      0.447693   -1.811072    0.992867
O     -0.573661   -2.630550    0.821606
H     -3.639515   -0.119887    1.749350
H      0.414855    0.877076    1.210006
H     -0.768865    2.410017   -0.388021
H      0.728597    1.739278   -1.110025
H     -0.878316    1.072064   -1.598300
H     -0.140923   -1.277864   -0.958236
H      3.946796   -0.363369   -1.191049
16

C      2.692809   -0.071120    0.874266
C      1.742445   -0.503871    0.271870
C      0.581185   -1.033229   -0.463564
C     -0.655227   -0.091593   -0.411165
C     -0.308082    1.278485   -1.017368
C     -1.096734    0.120209    0.988759
C     -1.454846    0.292196    2.127320
O     -1.715005   -0.627278   -1.182539
O     -2.077816   -1.777552   -0.639914
H      3.526679    0.309305    1.403187
H      0.331698   -2.024418   -0.028349
H      0.879549   -1.197929   -1.521102
H     -1.211505    1.925933   -1.046908
H      0.061580    1.156351   -2.058212
H      0.472071    1.801415   -0.422818
H     -1.768802    0.443094    3.126535
16

C      2.598163   -0.147809    0.965496
C      1.796836   -0.288626    0.075929
C      0.818146   -0.460337   -1.010155
C     -0.575826    0.097436   -0.653188
C     -0.513681    1.551471   -0.419385
C     -0.462611    2.740853   -0.228208
C     -1.210024   -0.607287    0.557825
O     -1.356690   -1.977620    0.290141
O     -1.895209   -2.501318    1.374586
H      3.301101   -0.023963    1.746755
H      1.203043    0.054274   -1.916872
H      0.741052   -1.541684   -1.251226
H     -1.240153   -0.065871   -1.529738
H     -0.417475    3.784668   -0.060186
H     -0.574963   -0.456274    1.461131
H     -2.211709   -0.157914    0.751384
22

C     -1.198658   -1.616508    0.091493
C     -0.567560   -0.549853   -0.430548
C      0.945521   -0.517833   -0.450429
C      1.503290   -0.211216    0.944335
C      3.028215   -0.160815    0.929963
C     -1.362907    0.601415   -1.019348
C     -2.127707    1.342348    0.085014
O     -2.257863    0.099008   -1.985183
O     -2.591914    1.115834   -2.758620
H     -2.282599   -1.674293    0.106298
H     -0.637010   -2.448811    0.505115
H      1.306654    0.254699   -1.163012
H      1.332658   -1.497387   -0.808625
H      1.178210   -0.994545    1.663135
H      1.113784    0.769915    1.293918
H      3.381743    0.636411    0.241836
H      3.402396    0.060768    1.951652
H      3.443254   -1.138255    0.603742
H     -0.653402    1.325196   -1.485784
H     -2.631173    2.237964   -0.336248
H     -1.425345    1.679802    0.877092
H     -2.899585    0.686155    0.540086
22

C     -0.680738   -1.817608   -0.689759
C     -0.725988   -0.661827   -0.004421
C     -2.007833    0.140766    0.020687
C     -2.228801    0.862820   -1.305419
C      0.490534   -0.177148    0.770180
C      1.615561    0.219593   -0.201450
C      2.796819    0.857359    0.527982
O      0.951632   -1.187763    1.637211
O      0.116273   -1.213795    2.659462
H      0.221077   -2.421561   -0.709590
H     -1.549046   -2.177043   -1.233813
H     -1.980564    0.897329    0.833556
H     -2.869369   -0.530719    0.228449
H     -2.323850    0.132009   -2.136390
H     -1.379835    1.548099   -1.515103
H     -3.163158    1.460313   -1.251957
H      0.228033    0.738099    1.352518
H      1.977562   -0.673976   -0.754986
H      1.224536    0.950587   -0.943056
H      2.469858    1.770515    1.069416
H      3.240434    0.140569    1.251060
H      3.576866    1.143381   -0.208697
22

C     -1.431960   -0.744322   -1.271048
C     -0.959544    0.211393   -0.453532
C     -1.717027    0.553390    0.812590
C     -1.571282   -0.535350    1.872653
C      0.252871    1.028137   -0.860726
C      1.543490    0.195053   -0.988955
C      1.928233   -0.454370    0.347135
O      2.578488    1.052449   -1.412187
O      3.489148    0.292315   -1.992623
H     -0.942860   -0.968205   -2.213698
H     -2.325717   -1.305088   -1.014588
H     -1.353195    1.511002    1.242081
H     -2.793931    0.692278    0.573213
H     -2.190056   -0.274690    2.756997
H     -0.513977   -0.616012    2.199292
H     -1.913572   -1.516407    1.480767
H      0.038245    1.508862   -1.840291
H      0.428792    1.851537   -0.134947
H      1.366861   -0.608279   -1.743215
H      1.989969    0.310178    1.150852
H      1.182782   -1.226744    0.627461
H      2.914240   -0.957128    0.258649
20

C      2.214053    1.145918   -0.303541
C      1.408561    0.381822   -1.048984
C      0.793161   -0.898643   -0.532390
O      1.767453   -1.731255    0.056537
O      2.476387   -2.241651   -0.933931
C     -0.310019   -0.583212    0.463334
C     -0.032194   -0.385498    1.764708
C     -1.740168   -0.456785   -0.016743
C     -2.185808    1.003085   -0.043223
H      2.468195    0.870247    0.714362
H      2.632366    2.057199   -0.718195
H      1.189793    0.689987   -2.067226
H      0.328116   -1.426549   -1.397783
H     -0.822014   -0.153600    2.472922
H      0.982124   -0.457150    2.143273
H     -1.848090   -0.872839   -1.041081
H     -2.413437   -1.041109    0.647664
H     -2.158898    1.438641    0.978045
H     -1.523608    1.594351   -0.711308
H     -3.225972    1.067043   -0.426441
20

C      2.900508    0.268483    0.322795
C      1.890876   -0.078808    1.126174
C      0.825374   -1.041858    0.683766
C     -0.085936   -0.400168   -0.337130
C      0.079895   -0.667251   -1.644304
C     -1.136435    0.593373    0.120984
C     -2.543719    0.034570   -0.122043
O     -0.961516    1.806950   -0.573681
O     -1.558402    2.742666    0.141665
H      3.657494    0.963278    0.671525
H      2.979609   -0.135741   -0.681798
H      1.843349    0.336991    2.128319
H      0.221262   -1.342041    1.566604
H      1.296157   -1.968512    0.286884
H     -0.545813   -0.194561   -2.395010
H      0.847590   -1.357063   -1.981528
H     -1.011512    0.751196    1.219376
H     -2.738726   -0.084487   -1.208981
H     -2.655271   -0.951816    0.377226
H     -3.304783    0.724798    0.299158
18

C      1.847266   -2.094876    0.866288
C      1.679996   -0.987617    0.419364
C      1.475772    0.359744   -0.124455
O      1.885178    0.370387   -1.469506
O      2.027672    1.639251   -1.805756
C      0.008541    0.732390   -0.014139
C     -0.365536    1.778815    0.740661
C     -1.033857   -0.044473   -0.791334
C     -1.927390   -0.864152    0.136878
H      1.993170   -3.066821    1.258499
H      2.116604    1.044819    0.479685
H     -1.409016    2.071168    0.809007
H      0.363458    2.360791    1.296064
H     -0.540943   -0.738513   -1.505786
H     -1.657838    0.657431   -1.386161
H     -2.494009   -0.199350    0.822506
H     -2.653733   -1.447276   -0.467472
H     -1.315334   -1.571718    0.735658
18

C      3.080672    0.222358   -1.137629
C      2.290556   -0.160749   -0.311624
C      1.328248   -0.626859    0.693057
C      0.032632    0.140284    0.574119
C     -0.016184    1.425371    0.967745
C     -1.215246   -0.551991    0.047551
C     -1.616284    0.029970   -1.308437
O     -2.285628   -0.399024    0.949476
O     -2.050147   -1.225230    1.952198
H      3.773956    0.558919   -1.862864
H      1.164451   -1.714009    0.541460
H      1.759171   -0.490222    1.707857
H      0.867922    1.922092    1.356380
H     -0.939304    1.993751    0.910283
H     -1.014256   -1.635659   -0.124988
H     -1.889070    1.102639   -1.214590
H     -2.493246   -0.521987   -1.708540
H     -0.778241   -0.069656   -2.031452
20

C      2.583761   -0.142033    1.281968
C      2.117582    0.749733    0.408164
C      0.672095    0.987124    0.173894
C      0.284576    2.218576   -0.181303
C     -0.354237   -0.128726    0.295047
C     -1.027480   -0.395454   -1.066632
C     -1.922380   -1.633232   -1.031522
O     -1.325631    0.250221    1.247815
O     -1.528549   -0.790733    2.034683
H      1.928107   -0.743924    1.895852
H      3.651746   -0.247565    1.422033
H      2.836726    1.375000   -0.108672
H      1.002526    3.023542   -0.283147
H     -0.757976    2.449048   -0.359317
H      0.172099   -1.070620    0.576843
H     -1.643708    0.477459   -1.372142
H     -0.244226   -0.552674   -1.840717
H     -2.346470   -1.812417   -2.041994
H     -2.762160   -1.485723   -0.320294
H     -1.336402   -2.527603   -0.730559
20

C      1.886307   -1.557296    0.887448
C      2.069204   -0.240498    0.783726
C      1.198064    0.660466   -0.015975
C      1.418956    1.978655    0.038018
C      0.047976    0.138240   -0.852926
C     -1.217083   -0.066664   -0.002481
C     -2.320692   -0.712254   -0.847603
O     -1.656190    1.182478    0.479961
O     -2.392619    0.937777    1.548182
H      1.074461   -2.072258    0.394727
H      2.564298   -2.145240    1.492467
H      2.903559    0.190550    1.325582
H      2.222663    2.389199    0.637135
H      0.796438    2.672941   -0.512867
H     -0.177499    0.845472   -1.682806
H      0.345073   -0.813738   -1.341960
H     -0.964596   -0.757249    0.837387
H     -2.594084   -0.052421   -1.698773
H     -3.224710   -0.885250   -0.226394
H     -1.979526   -1.692910   -1.242850
18

C      3.197225   -0.234036    1.438829
C      2.269894    0.088086    0.739072
C      1.159318    0.472604   -0.096421
C      1.398587    0.970277   -1.312697
C     -0.252326    0.324662    0.432527
C     -1.007579   -0.758507   -0.357131
C     -2.381482   -1.045846    0.246218
O     -0.942708    1.549118    0.330766
O     -0.498002    2.313058    1.311692
H      4.011191   -0.516834    2.053146
H      2.411798    1.079165   -1.681131
H      0.585392    1.280318   -1.956728
H     -0.214720   -0.011588    1.497696
H     -1.140469   -0.439803   -1.413977
H     -0.417237   -1.701310   -0.351662
H     -3.016182   -0.134857    0.219898
H     -2.278038   -1.391306    1.296870
H     -2.884662   -1.843201   -0.340315
18

C      3.368593    0.214767    0.999265
C      2.370585   -0.202688    0.467196
C      1.175664   -0.700617   -0.167759
C      1.254807   -1.239248   -1.386046
C     -0.139742   -0.623806    0.565129
C     -0.981875    0.573848    0.092576
C     -2.235304    0.712845    0.963919
O     -1.358819    0.380043   -1.251186
O     -1.616687    1.575951   -1.747712
H      4.244593    0.581295    1.466368
H      2.202106   -1.298717   -1.908786
H      0.374358   -1.634362   -1.877095
H     -0.706060   -1.571797    0.427125
H      0.059601   -0.520312    1.655212
H     -0.361362    1.495304    0.211796
H     -2.868808   -0.196120    0.879698
H     -2.829799    1.592710    0.639087
H     -1.951854    0.860905    2.027868
22

C     -1.764484    0.513713   -1.317192
C     -1.856918   -0.736464   -0.438968
C     -0.870872   -0.781789    0.751699
C     -1.139409    0.307414    1.801902
C      0.580749   -0.831454    0.318389
C      1.270529    0.245085   -0.093014
C      2.710061    0.125089   -0.496135
O      3.193825    1.383322   -0.883175
O      4.455023    1.195097   -1.221044
H     -2.573893    0.484391   -2.076761
H     -1.892357    1.437535   -0.717603
H     -0.797513    0.543833   -1.859209
H     -1.688021   -1.628898   -1.080648
H     -2.894750   -0.812763   -0.046976
H     -1.068997   -1.749603    1.264252
H     -0.473272    0.157979    2.678417
H     -0.962823    1.324764    1.398566
H     -2.191355    0.245206    2.153154
H      1.089324   -1.790895    0.373543
H      0.793633    1.219239   -0.138040
H      3.295056   -0.259383    0.370163
H      2.786466   -0.591419   -1.345440
22

C     -2.671593    1.154487    0.463844
C     -1.155098    0.961357    0.435456
C     -0.704099   -0.035043   -0.656624
C     -1.114448   -1.482812   -0.343924
C      0.783945    0.069448   -0.918065
C      1.737848   -0.196019   -0.009589
C      3.189107   -0.070882   -0.384219
O      1.389129   -0.622007    1.274146
O      2.321144   -0.939139    2.182964
H     -3.043181    1.468486   -0.534646
H     -2.929113    1.945237    1.199698
H     -3.181213    0.217831    0.770962
H     -0.820884    0.623282    1.439203
H     -0.689721    1.952642    0.239875
H     -1.209512    0.249010   -1.606808
H     -2.216986   -1.592321   -0.408421
H     -0.665047   -2.177552   -1.085633
H     -0.790757   -1.785764    0.673268
H      1.080762    0.381098   -1.913348
H      3.756253    0.390915    0.450589
H      3.603710   -1.079609   -0.589779
H      3.329754    0.567358   -1.283067
22

C      2.902799    0.121454   -1.037512
C      1.527149   -0.430601   -0.828863
C      0.747734   -0.029036    0.185987
O      1.247159    0.936193    1.071749
O      0.536535    1.399473    2.107624
C     -0.647528   -0.621991    0.345083
C     -0.776284   -1.370459    1.677672
C     -1.758238    0.438959    0.193228
C     -1.752066    1.091806   -1.189467
H      3.537954   -0.096361   -0.152994
H      2.851320    1.219237   -1.197270
H      3.363503   -0.347865   -1.931874
H      1.169859   -1.172752   -1.533027
H     -0.821558   -1.385548   -0.447452
H     -0.763567   -0.675405    2.541606
H      0.054362   -2.100083    1.788895
H     -1.733694   -1.933652    1.703302
H     -1.667030    1.227815    0.968062
H     -2.747061   -0.049655    0.336166
H     -1.843820    0.319581   -1.982605
H     -0.816183    1.668876   -1.344724
H     -2.611346    1.790014   -1.273587
22

C      3.216744    0.352560   -0.740367
C      1.745343    0.078036   -0.704886
C      1.078355    0.039781    0.460863
C     -0.420877   -0.231329    0.551528
C     -0.771351   -1.574327   -0.139429
C     -1.171916    0.940842   -0.134700
C     -2.696286    0.855549   -0.009902
O     -0.817942   -0.257002    1.912093
O     -0.196367   -1.264879    2.500991
H      3.761379   -0.427031   -0.166949
H      3.426596    1.350201   -0.300056
H      3.575020    0.341381   -1.790972
H      1.226358   -0.089614   -1.643510
H      1.629750    0.216336    1.381437
H     -0.707532   -1.486478   -1.244904
H     -0.073369   -2.377089    0.182166
H     -1.800627   -1.892807    0.128929
H     -0.845376    1.899710    0.325968
H     -0.913671    0.989175   -1.215140
H     -3.088480   -0.023600   -0.561687
H     -3.003821    0.793295    1.054984
H     -3.151930    1.767289   -0.450577
22

C      2.983641    0.407525    0.344285
C      1.552195   -0.029789    0.375153
C      0.736459    0.211192   -0.663652
C     -0.723775   -0.197722   -0.686733
C     -1.533901    0.408695    0.481495
C     -1.560395    1.936821    0.437493
C     -0.880674   -1.728043   -0.754916
O     -0.480143   -2.328296    0.449723
O     -0.648099   -3.625549    0.279510
H      3.510680   -0.080981   -0.502340
H      3.040208    1.510558    0.228609
H      3.484101    0.120054    1.292528
H      1.186368   -0.539787    1.260210
H      1.127652    0.737660   -1.530658
H     -1.155845    0.200258   -1.632300
H     -1.120708    0.080611    1.459257
H     -2.583293    0.045317    0.423934
H     -1.979643    2.288779   -0.528981
H     -2.199094    2.320110    1.260949
H     -0.537641    2.349450    0.566672
H     -0.268848   -2.118116   -1.600905
H     -1.949247   -1.968745   -0.959332
22

C      2.997744    1.017234    0.693361
C      1.754211    0.840759   -0.121235
C      0.918318   -0.181162    0.111577
C     -0.348361   -0.376837   -0.692269
C     -0.264588   -1.725106   -1.419773
C     -1.597285   -0.312046    0.221224
C     -1.724770    1.065198    0.891590
O     -2.749359   -0.553045   -0.555515
O     -3.676106   -1.005668    0.269109
H      3.654277    0.128812    0.579833
H      2.733535    1.147712    1.764090
H      3.548047    1.917005    0.347228
H      1.537189    1.560271   -0.905778
H      1.146949   -0.891576    0.902649
H     -0.438465    0.415978   -1.469638
H     -0.231538   -2.563915   -0.691164
H     -1.141655   -1.863322   -2.086810
H      0.649758   -1.762642   -2.050478
H     -1.482651   -1.088217    1.017370
H     -0.859370    1.260596    1.559154
H     -1.780659    1.866415    0.123987
H     -2.645221    1.103558    1.511488
22

C      2.919305   -0.209392    1.337882
C      1.703007    0.504478    0.835673
C      1.053117    0.076048   -0.255934
C     -0.174851    0.791366   -0.775218
C     -0.506488    0.334339   -2.202508
C     -1.383201    0.637165    0.179012
C     -1.821521   -0.814912    0.409884
O     -2.862423   -0.836270    1.350395
O     -3.185360   -2.106374    1.502261
H      2.662433   -1.258260    1.597022
H      3.710710   -0.203861    0.558875
H      3.305048    0.300434    2.245347
H      1.351904    1.382074    1.371434
H      1.428493   -0.794663   -0.789060
H      0.063968    1.876867   -0.836753
H      0.327965    0.600939   -2.886051
H     -1.425666    0.841069   -2.566200
H     -0.655772   -0.764932   -2.249693
H     -2.243989    1.211791   -0.228125
H     -1.128976    1.093200    1.160801
H     -0.960060   -1.408941    0.790098
H     -2.177643   -1.252166   -0.549143
22

C     -2.225482   -0.396748    1.202533
C     -1.288104   -0.759274    0.050311
C     -0.350383    0.401198   -0.345367
C     -1.118282    1.551459   -1.011591
C      0.708771   -0.111752   -1.300197
C      1.911086   -0.584018   -0.920802
C      2.399067   -0.611475    0.500927
O      2.664428    0.696856    0.931590
O      3.060749    0.589285    2.185134
H     -2.960148    0.372149    0.886394
H     -1.645474   -0.021389    2.072279
H     -2.788186   -1.300501    1.518196
H     -0.678190   -1.630896    0.374435
H     -1.891394   -1.082423   -0.826477
H      0.127979    0.813013    0.568454
H     -1.810929    2.030279   -0.288989
H     -0.407807    2.331940   -1.359733
H     -1.701355    1.185437   -1.884105
H      0.454614   -0.174831   -2.355344
H      2.568171   -0.985098   -1.687334
H      1.637142   -1.098362    1.150339
H      3.333727   -1.214851    0.539346
22

C     -2.126061   -0.685156    1.136272
C     -1.804086    0.522045    0.308206
C     -0.690981    0.653266   -0.443060
O     -0.473394    1.826767   -1.178404
O     -1.340943    2.849114   -1.171171
C      0.374814   -0.426708   -0.534300
C      0.528232   -0.871521   -1.993129
C      1.722814    0.083609    0.014687
C      1.667119    0.361428    1.517195
H     -3.092308   -0.530496    1.660609
H     -1.336654   -0.847998    1.899879
H     -2.220808   -1.580842    0.486907
H     -2.525258    1.328823    0.334424
H      0.098863   -1.334412    0.041671
H      0.878722   -0.030889   -2.630141
H     -0.445468   -1.237355   -2.384280
H      1.262615   -1.702134   -2.065497
H      2.032114    1.009905   -0.517631
H      2.507358   -0.684614   -0.162381
H      2.670190    0.677922    1.872900
H      1.368876   -0.555422    2.068698
H      0.944243    1.174668    1.738547
22

C      2.183511    0.705669   -0.875058
C      1.715294    0.730680    0.550108
C      0.623373    0.108769    1.043950
C     -0.446566   -0.686825    0.281620
C      0.161546   -1.731202   -0.686765
C     -1.358749    0.272944   -0.526192
C     -2.068752    1.316165    0.342822
O     -1.281075   -1.356254    1.212753
O     -0.531820   -2.205282    1.896628
H      3.060521    1.378095   -0.980358
H      1.400198    1.068910   -1.566216
H      2.515434   -0.314769   -1.153265
H      2.331757    1.286075    1.251786
H      0.464572    0.215534    2.114253
H      0.485410   -1.271647   -1.642621
H      1.027695   -2.248220   -0.220656
H     -0.601531   -2.497175   -0.943743
H     -0.785801    0.804878   -1.310910
H     -2.138877   -0.324323   -1.048291
H     -2.683250    0.824027    1.125683
H     -1.332536    1.993712    0.823848
H     -2.740355    1.930241   -0.293495
22

C      2.413232   -0.936238    0.418526
C      1.795961   -0.650449   -0.918916
C      0.619488   -0.019463   -1.084196
C     -0.256771    0.486941    0.046624
C     -1.604981   -0.264764    0.053741
C     -1.441496   -1.742152    0.412801
C     -0.473405    1.998016   -0.129547
O     -1.156388    2.517708    0.981829
O     -1.305947    3.806408    0.742787
H      3.374915   -1.472338    0.277374
H      1.737693   -1.578068    1.022198
H      2.615496    0.013724    0.956588
H      2.332873   -0.977303   -1.804754
H      0.261525    0.124414   -2.100354
H      0.229895    0.338813    1.034168
H     -2.284782    0.193110    0.804760
H     -2.095999   -0.182353   -0.941068
H     -0.957347   -1.846514    1.407009
H     -0.828885   -2.265950   -0.350835
H     -2.439881   -2.226421    0.452816
H      0.519709    2.496447   -0.219507
H     -1.054905    2.186431   -1.062045
22

C      2.426531    0.652456    1.157294
C      2.313167   -0.395789    0.088628
C      1.220231   -0.571613   -0.675922
C     -0.063661    0.221835   -0.527911
C     -0.680975    0.453364   -1.916605
C     -1.025057   -0.513371    0.440371
C     -2.256738    0.339013    0.780531
O     -1.426778   -1.741745   -0.124514
O     -1.805881   -2.514224    0.877029
H      2.357368    1.665149    0.707835
H      1.626337    0.520453    1.914817
H      3.409794    0.560949    1.664233
H      3.165976   -1.048530   -0.074213
H      1.238796   -1.379882   -1.402643
H      0.165426    1.226231   -0.110845
H     -1.553744    1.135100   -1.849651
H     -1.003222   -0.504767   -2.377379
H      0.064389    0.933373   -2.586756
H     -0.464754   -0.683335    1.391470
H     -2.828208   -0.137665    1.604787
H     -1.948824    1.352053    1.116350
H     -2.930173    0.430942   -0.096906
22

C     -2.674537   -0.725836    1.154529
C     -2.534055    0.180023   -0.034206
C     -1.355630    0.490554   -0.604114
C     -0.018666   -0.069350   -0.161402
C      0.290156   -1.335853   -0.971756
C      1.072749    1.008772   -0.341417
C      2.410636    0.618608    0.294864
O      3.292228    1.707434    0.218525
O      4.411698    1.305542    0.789243
H     -2.162155   -0.283469    2.034399
H     -3.749554   -0.850682    1.401380
H     -2.245912   -1.724927    0.930995
H     -3.439118    0.606534   -0.457093
H     -1.373754    1.134543   -1.479766
H     -0.058185   -0.338472    0.915956
H      0.450257   -1.087948   -2.043164
H      1.194283   -1.842914   -0.576620
H     -0.552261   -2.056070   -0.897678
H      1.227933    1.220743   -1.422676
H      0.727105    1.950947    0.140135
H      2.243760    0.340966    1.360766
H      2.843022   -0.249148   -0.250899
20

C     -1.731992   -2.049250   -0.258966
C     -1.424240   -1.086411   -1.136720
C     -0.631895    0.150907   -0.769631
C      0.735618   -0.203351   -0.225737
C      1.708811    0.714450   -0.134080
C      3.058606    0.355488    0.405120
C     -1.413694    1.065807    0.191148
O     -1.500976    0.489694    1.468997
O     -2.187482    1.343735    2.203428
H     -1.412107   -1.994869    0.776094
H     -2.303303   -2.913271   -0.582225
H     -1.756479   -1.199346   -2.164831
H     -0.481395    0.718187   -1.715414
H      0.940391   -1.223149    0.091583
H      1.527407    1.736831   -0.454181
H      3.715497    1.250277    0.396847
H      3.520095   -0.434754   -0.223975
H      2.964020   -0.010949    1.449157
H     -0.893496    2.048792    0.255427
H     -2.433384    1.241183   -0.222947
20

C     -1.988079    0.805386    1.507978
C     -1.994284    0.540496    0.197794
C     -1.069391   -0.491499   -0.399186
C     -1.477337   -0.813282   -1.838951
C      0.349262    0.022994   -0.377660
C      1.298031   -0.549651    0.378288
C      2.700109   -0.018930    0.398311
O      2.702983    1.277203    0.934830
O      3.960862    1.673626    0.909594
H     -1.311464    0.285146    2.179422
H     -2.664812    1.549471    1.915228
H     -2.689863    1.080505   -0.439517
H     -1.158815   -1.431866    0.190859
H     -2.516604   -1.205929   -1.862046
H     -0.803590   -1.589726   -2.260928
H     -1.422570    0.094678   -2.478386
H      0.594782    0.897824   -0.975492
H      1.062716   -1.420626    0.983856
H      3.326422   -0.692303    1.025727
H      3.101643   -0.013519   -0.640628
20

C     -1.479810   -1.617833    0.115662
C     -0.907228   -0.790123   -0.766688
C     -0.266468    0.523763   -0.372132
C      0.739938    0.346540    0.750315
C      1.934082   -0.254164    0.598999
C      2.424577   -0.815979   -0.704108
C     -1.330651    1.576859   -0.015198
O     -2.049443    1.197773    1.130597
O     -2.925528    2.161099    1.341605
H     -1.505267   -1.382940    1.174785
H     -1.920218   -2.549788   -0.223194
H     -0.890568   -1.078033   -1.813844
H      0.270694    0.919768   -1.261571
H      0.492782    0.728774    1.737199
H      2.586370   -0.331617    1.464101
H      2.482605   -0.015453   -1.470754
H      1.750402   -1.624959   -1.053501
H      3.439915   -1.242474   -0.565062
H     -0.822121    2.552670    0.161439
H     -2.024064    1.696116   -0.879558
20

C     -2.364850    1.210790    0.716298
C     -1.219759    0.544382    0.895047
C     -0.882981   -0.687019    0.086347
C     -0.780828   -0.389988   -1.417184
C      0.334657   -1.401221    0.648465
C      1.625338   -1.010204    0.574723
C      2.153063    0.182162   -0.175834
O      1.607145    1.366280    0.338148
O      2.095230    2.340503   -0.405241
H     -3.087593    0.893881   -0.029106
H     -2.586856    2.081251    1.325025
H     -0.541851    0.885138    1.672422
H     -1.733301   -1.394246    0.213092
H     -1.798901   -0.286844   -1.849377
H     -0.269086   -1.221108   -1.947990
H     -0.244574    0.562112   -1.607158
H      0.135353   -2.313514    1.204841
H      2.362262   -1.634902    1.072320
H      3.259539    0.203630   -0.054979
H      1.937994    0.068917   -1.259858
18

C      2.224121    2.080868    0.859608
C      1.577099    1.211437    0.330961
C      0.788581    0.151400   -0.314914
C     -0.597771    0.141602    0.276626
C     -1.693986    0.251726   -0.487480
C     -3.061639    0.220177    0.120983
C      1.455588   -1.213754   -0.112505
O      2.714379   -1.226116   -0.734979
O      3.215139   -2.425886   -0.511258
H      2.791974    2.843768    1.323694
H      0.748222    0.370308   -1.405096
H     -0.705068    0.013256    1.351690
H     -1.604176    0.364962   -1.564328
H     -3.828466    0.325349   -0.674741
H     -3.175010    1.057301    0.841828
H     -3.220107   -0.744939    0.647001
H      1.563151   -1.421560    0.978110
H      0.807968   -1.999899   -0.565188
18

C     -1.996460    1.009714    2.219974
C     -1.573709    0.136527    1.503932
C     -1.057704   -0.929030    0.630083
C     -1.909590   -1.046491   -0.636573
C      0.396614   -0.690678    0.300499
C      0.824802    0.412987   -0.334547
C      2.279533    0.606917   -0.642743
O      2.458474    1.831899   -1.301754
O      3.753021    1.927934   -1.536583
H     -2.367321    1.776307    2.848170
H     -1.134404   -1.888392    1.185754
H     -2.956478   -1.305318   -0.368220
H     -1.915496   -0.092136   -1.205842
H     -1.510127   -1.851481   -1.289960
H      1.117838   -1.448895    0.595037
H      0.113944    1.181295   -0.627328
H      2.623812   -0.230184   -1.291768
H      2.853251    0.599027    0.311880
18

C      2.517715    2.062163   -0.042647
C      1.626591    1.250842   -0.083833
C      0.539463    0.260588   -0.135533
C     -0.572936    0.695476    0.792322
C     -1.878555    0.463960    0.565665
C     -2.405024   -0.209651   -0.668317
C      1.060715   -1.122170    0.274753
O      2.033385   -1.555585   -0.640827
O      2.429550   -2.738797   -0.212646
H      3.299827    2.774083   -0.006344
H      0.182358    0.219373   -1.186180
H     -0.301203    1.165775    1.734616
H     -2.596347    0.780828    1.316845
H     -2.170733    0.400215   -1.565820
H     -3.507655   -0.313288   -0.593165
H     -1.962349   -1.221863   -0.774122
H      1.493943   -1.069212    1.301191
H      0.211255   -1.842739    0.284053
18

C     -1.934746   -1.827827    0.532866
C     -1.402759   -0.812760    0.157928
C     -0.752606    0.424265   -0.300565
C     -1.814330    1.498147   -0.548545
C      0.250683    0.893198    0.730873
C      1.450853    0.317596    0.936424
C      1.969293   -0.859778    0.157368
O      2.236331   -0.470732   -1.163475
O      2.662283   -1.556778   -1.779203
H     -2.401246   -2.718772    0.862067
H     -0.241249    0.226195   -1.265842
H     -2.378627    1.720548    0.383578
H     -2.529961    1.157238   -1.327713
H     -1.332492    2.432950   -0.907331
H     -0.002761    1.752980    1.346371
H      2.086083    0.724046    1.718448
H      2.908267   -1.212518    0.640164
H      1.226984   -1.687999    0.186597
20

C     -1.786593    1.652617    0.109847
C     -1.818615    0.141801    0.346065
C     -0.894469   -0.622196   -0.621870
C     -1.107734   -2.132564   -0.492060
C      0.518947   -0.303189   -0.357874
C      1.675256   -0.039248   -0.140877
C      3.077594    0.282538    0.123700
O      3.148461    1.521659    0.773958
O      4.432045    1.745685    0.979545
H     -2.503865    2.150087    0.796142
H     -0.772450    2.058895    0.308747
H     -2.077485    1.886250   -0.936382
H     -1.530941   -0.070551    1.399758
H     -2.866159   -0.203882    0.204555
H     -1.131869   -0.327244   -1.667343
H     -0.883585   -2.474550    0.541852
H     -0.447268   -2.676409   -1.201637
H     -2.160271   -2.392312   -0.734748
H      3.508734   -0.518266    0.764470
H      3.620265    0.320878   -0.846755
20

C      3.597674    0.911448   -0.136623
C      2.211613    0.448225   -0.196735
C      1.068825    0.066494   -0.246093
C     -0.334433   -0.402124   -0.305719
C     -0.971884    0.213962   -1.561342
C     -1.083796    0.070338    0.973106
C     -2.512480   -0.469087    1.084298
O     -0.373502   -1.810484   -0.446911
O      0.217301   -2.342597    0.609899
H      4.150822    0.325130    0.625706
H      3.616822    1.986221    0.137936
H      4.076760    0.774406   -1.127875
H     -1.025397    1.321534   -1.478897
H     -1.996094   -0.183211   -1.719479
H     -0.375735   -0.043502   -2.464193
H     -1.120857    1.182099    1.001131
H     -0.523604   -0.253561    1.878223
H     -2.522201   -1.577535    1.025057
H     -3.157226   -0.048798    0.285459
H     -2.942608   -0.168958    2.063052
20

C      3.322230   -0.287888    0.544031
C      1.883449   -0.058540    0.415548
C      0.697348    0.129761    0.309049
C     -0.753471    0.358666    0.178891
C     -1.398569   -0.737929   -0.692159
C     -1.346137   -2.115192   -0.028639
C     -1.009346    1.747322   -0.424613
O     -0.491938    2.739792    0.423955
O     -0.742747    3.889867   -0.171620
H      3.536998   -1.368944    0.417382
H      3.661111    0.041389    1.547802
H      3.859876    0.289791   -0.235744
H     -1.206962    0.329718    1.194110
H     -0.893252   -0.788493   -1.682202
H     -2.467232   -0.486830   -0.870102
H     -1.850928   -2.086964    0.960389
H     -1.867493   -2.855821   -0.670999
H     -0.294716   -2.446447    0.104721
H     -2.107587    1.895236   -0.540893
H     -0.530633    1.811507   -1.429813
20

C      3.532044    0.021858    0.383340
C      2.145334   -0.076941   -0.071156
C      1.001749   -0.158074   -0.444308
C     -0.396097   -0.256275   -0.898563
C     -0.927649   -1.675058   -0.653940
C     -1.272943    0.847336   -0.255086
C     -1.413497    0.692038    1.269966
O     -2.547572    0.826552   -0.857085
O     -3.072749    2.024915   -0.678103
H      4.085181    0.729720   -0.267706
H      4.010041   -0.978061    0.332651
H      3.552646    0.388953    1.430110
H     -0.392411   -0.084464   -1.997254
H     -0.843146   -1.957248    0.417115
H     -0.341899   -2.405731   -1.252329
H     -1.990560   -1.751063   -0.966104
H     -0.766859    1.822812   -0.459634
H     -0.417755    0.613910    1.754515
H     -2.015652   -0.205971    1.521499
H     -1.928205    1.580792    1.692072
20

C      3.907237    0.025991   -0.157204
C      2.454325   -0.099135   -0.271097
C      1.256613   -0.202307   -0.364394
C     -0.205184   -0.327743   -0.478296
C     -0.621933   -1.749157   -0.080883
C     -0.881514    0.747823    0.396821
C     -2.391155    0.846002    0.157457
O     -2.900821    1.941682    0.870420
O     -4.194095    1.970175    0.611437
H      4.332489   -0.928256    0.216184
H      4.337752    0.258102   -1.153004
H      4.153626    0.843040    0.551717
H     -0.474710   -0.159803   -1.543735
H     -0.050669   -2.496654   -0.673059
H     -0.431360   -1.928797    0.999360
H     -1.698631   -1.913686   -0.291728
H     -0.691873    0.540088    1.473521
H     -0.433349    1.739392    0.160815
H     -2.884608   -0.087789    0.507449
H     -2.582142    0.981031   -0.931782
18

C     -2.172857    1.629493   -0.720523
C     -1.329568    0.594771   -0.787576
C     -0.556969    0.115019    0.415341
C      0.880283    0.181595    0.117652
C      2.059952    0.236174   -0.126046
C      3.490903    0.301926   -0.422153
C     -0.952779   -1.322031    0.772003
O     -2.308649   -1.363216    1.134432
O     -2.567685   -2.625246    1.418047
H     -2.328673    2.169487    0.208316
H     -2.717306    1.942677   -1.605393
H     -1.208609    0.076403   -1.735342
H     -0.750977    0.766151    1.296503
H      3.687688    1.149786   -1.110087
H      4.057183    0.451174    0.520126
H      3.813343   -0.645380   -0.901203
H     -0.327500   -1.668424    1.627578
H     -0.767780   -1.990357   -0.101670
18

C     -1.907892    1.480655   -0.430864
C     -1.704096    0.955247    0.783683
C     -0.953225   -0.336728    1.000777
C     -1.676124   -1.522685    0.356834
C      0.421605   -0.229945    0.488286
C      1.547778   -0.141725    0.066488
C      2.913535   -0.034021   -0.446777
O      2.907804    0.759538   -1.601557
O      4.162175    0.812576   -2.006268
H     -1.530235    0.993274   -1.324279
H     -2.453984    2.412649   -0.533750
H     -2.093010    1.480987    1.650950
H     -0.892998   -0.523157    2.094653
H     -1.147016   -2.468925    0.601164
H     -2.713203   -1.594239    0.749033
H     -1.716915   -1.414786   -0.748474
H      3.284950   -1.056622   -0.679370
H      3.550852    0.427907    0.339482
16

C     -0.883512    2.872712   -0.058981
C     -0.807003    1.707245    0.241155
C     -0.715353    0.287218    0.607952
C      0.651071   -0.185873    0.353242
C      1.772992   -0.575672    0.144459
C      3.133761   -1.048452   -0.109463
C     -1.723006   -0.546533   -0.190315
O     -3.030277   -0.144167    0.127782
O     -3.827761   -0.901557   -0.600694
H     -0.950683    3.895399   -0.322546
H     -0.927909    0.183353    1.693294
H      3.817111   -0.178869   -0.197254
H      3.152885   -1.630498   -1.053765
H      3.463558   -1.694638    0.729892
H     -1.535570   -0.417748   -1.282497
H     -1.590303   -1.621918    0.072027
16

C     -2.460703   -2.006796    0.463684
C     -1.964704   -0.990936    0.043820
C     -1.362172    0.245967   -0.468307
C     -1.824556    1.444510    0.358837
C      0.100157    0.128427   -0.422345
C      1.301757    0.032643   -0.384760
C      2.759503   -0.083460   -0.338599
O      3.117638   -0.949606    0.702949
O      4.435425   -1.006018    0.685138
H     -2.895869   -2.898225    0.832287
H     -1.676471    0.386374   -1.524082
H     -2.930696    1.539479    0.308036
H     -1.378735    2.380081   -0.042575
H     -1.522660    1.331344    1.423328
H      3.113062   -0.482339   -1.315155
H      3.189023    0.928556   -0.167968
22

C     -2.656727    0.648004   -1.275970
C     -1.182709    0.447533   -1.067927
C     -0.669081   -0.360527   -0.112445
C     -1.573471   -1.135702    0.817753
C      0.840739   -0.506036    0.024114
C      1.453972    0.803076    0.550716
C      2.945336    0.652850    0.846733
O      1.416123   -0.827961   -1.221518
O      1.148305   -2.102448   -1.439486
H     -2.821873    1.352012   -2.118226
H     -3.117366    1.077733   -0.361945
H     -3.143645   -0.318371   -1.523643
H     -0.510262    0.985591   -1.730618
H     -2.215242   -1.827485    0.232896
H     -0.992605   -1.739680    1.545095
H     -2.214071   -0.435490    1.393778
H      1.081312   -1.300164    0.770474
H      0.937669    1.102505    1.489403
H      1.317641    1.617701   -0.193425
H      3.110805   -0.137995    1.609024
H      3.343746    1.611825    1.239949
H      3.501403    0.393027   -0.078851
22

C      2.984928    0.243341    0.385765
C      1.572464    0.643423    0.068576
C      0.737554   -0.110516   -0.679345
C      1.185096   -1.428176   -1.266769
C     -0.670051    0.382282   -0.944197
C     -1.563039    0.224078    0.297492
C     -2.961223    0.785302    0.016175
O     -1.655372   -1.142861    0.627474
O     -1.982178   -1.201871    1.905329
H      2.994134   -0.711638    0.951691
H      3.570643    0.130852   -0.550531
H      3.463265    1.027382    1.009262
H      1.220490    1.591243    0.467766
H      0.366655   -1.918547   -1.833829
H      2.036789   -1.264802   -1.959882
H      1.496068   -2.118683   -0.454985
H     -1.121444   -0.177155   -1.792528
H     -0.629650    1.451157   -1.250892
H     -1.106759    0.812194    1.129981
H     -3.595049    0.701779    0.924131
H     -2.896665    1.858465   -0.263866
H     -3.446654    0.222751   -0.809970
22

C     -1.304136   -1.930010   -0.020411
C     -1.383682   -0.595354   -0.705570
C     -0.776328    0.547877   -0.298454
C     -0.993709    1.780039   -1.142462
C      0.165236    0.672316    0.904171
C      1.644710    0.639676    0.473644
C      2.094980   -0.701881   -0.102269
O     -0.069116   -0.298257    1.897652
O     -1.126498    0.106349    2.578150
H     -1.822213   -2.691613   -0.640093
H     -0.253082   -2.253159    0.105554
H     -1.817477   -1.891267    0.961679
H     -1.993729   -0.563092   -1.605555
H     -0.650668    1.590835   -2.181934
H     -2.073210    2.040861   -1.156160
H     -0.430409    2.651452   -0.747246
H      0.017018    1.687863    1.345824
H      1.831585    1.434811   -0.280839
H      2.277969    0.870810    1.357911
H      3.171301   -0.644004   -0.368773
H      1.524355   -0.944301   -1.022820
H      1.967103   -1.509952    0.648001
22

C     -2.035658   -1.308370   -0.696789
C     -1.673305    0.148951   -0.680612
C     -0.729732    0.693009    0.121129
C     -0.530660    2.186167    0.066538
C      0.123462   -0.130344    1.076681
C      1.575411   -0.337414    0.584821
C      1.630962   -1.170392   -0.696381
O      2.215618    0.895807    0.353444
O      2.614610    1.341142    1.530776
H     -2.839502   -1.481857   -1.442468
H     -1.160265   -1.924730   -0.981535
H     -2.413318   -1.620566    0.299283
H     -2.235631    0.799606   -1.346170
H     -0.152119    2.477864   -0.935884
H     -1.494999    2.703477    0.257229
H      0.194274    2.527072    0.834177
H      0.150940    0.390766    2.057831
H     -0.331049   -1.120525    1.286725
H      2.124018   -0.923482    1.361317
H      1.096941   -0.658953   -1.524942
H      1.180771   -2.170780   -0.524732
H      2.689230   -1.316446   -1.000439
22

C     -2.556982    0.919107   -0.994233
C     -1.903992    0.702577    0.368038
C     -0.593610   -0.043960    0.230132
C     -0.563773   -1.518298    0.562796
C      0.496225    0.634558   -0.208132
C      1.897380    0.076801   -0.390603
C      2.628106   -0.028880    0.947849
O      1.891358   -1.175500   -1.031816
O      1.602297   -0.945644   -2.299611
H     -3.524979    1.446940   -0.862789
H     -2.748233   -0.058009   -1.487244
H     -1.903416    1.536613   -1.646320
H     -1.731410    1.685121    0.859488
H     -2.611508    0.140525    1.014524
H      0.152923   -1.724872    1.379936
H     -1.559263   -1.873508    0.901225
H     -0.299999   -2.111519   -0.335855
H      0.376519    1.685441   -0.460913
H      2.480821    0.808896   -0.998509
H      2.159220   -0.779570    1.612644
H      2.630260    0.956037    1.462378
H      3.682056   -0.332855    0.772896
22

C      2.681814   -0.602682    1.087760
C      2.028914    0.617560    0.446315
C      0.536205    0.607170    0.664131
C     -0.352243   -0.015531   -0.145159
C      0.084495   -0.698530   -1.422077
C     -1.833846    0.034114    0.199676
C     -2.549089    1.030475   -0.711754
O     -2.421952   -1.235241    0.042490
O     -2.026635   -1.960247    1.072868
H      2.297418   -1.539981    0.635319
H      2.477977   -0.617012    2.179892
H      3.780449   -0.559986    0.932740
H      2.447646    1.529643    0.923148
H      2.284641    0.667713   -0.632540
H      0.175325    1.124172    1.549410
H      0.802708   -1.513108   -1.198577
H     -0.780422   -1.145954   -1.954512
H      0.555275    0.038399   -2.105700
H     -1.988143    0.392037    1.246394
H     -2.102042    2.041709   -0.600495
H     -2.475384    0.716614   -1.774861
H     -3.623111    1.088665   -0.434470
24

C     -1.337672    1.427298    0.259168
C     -1.267473   -0.086680   -0.009251
C     -2.158002   -0.810444    1.018374
C      0.206696   -0.613955    0.010177
C      0.263348   -2.141092   -0.193748
C      1.094232    0.082837   -1.067031
C      2.026750    1.138343   -0.463261
O      2.752745    1.758281   -1.491427
O      3.537537    2.637615   -0.898776
H     -2.394730    1.766588    0.302876
H     -0.845431    1.676316    1.223663
H     -0.855143    1.999758   -0.558707
H     -1.701254   -0.272003   -1.017307
H     -1.695267   -0.780214    2.028104
H     -2.326149   -1.865815    0.720366
H     -3.160805   -0.335077    1.072773
H      0.630945   -0.418606    1.021369
H     -0.195431   -2.675173    0.663478
H      1.318034   -2.486903   -0.246741
H     -0.257405   -2.429752   -1.131838
H      1.738851   -0.654129   -1.595703
H      0.466241    0.548094   -1.857546
H      2.725618    0.637158    0.245076
H      1.433765    1.897554    0.091605
24

C     -1.772118    1.042052    0.596554
C     -1.193567   -0.368204    0.392565
C     -2.193387   -1.235734   -0.390180
C      0.230613   -0.387181   -0.255370
C      0.279256    0.299826   -1.637309
C      1.321751    0.163664    0.712462
C      2.723519   -0.339230    0.331279
O      1.310162    1.573847    0.710901
O      1.844590    1.960607    1.854828
H     -1.119392    1.647496    1.255994
H     -2.763672    0.974070    1.093194
H     -1.909351    1.565737   -0.372091
H     -1.111284   -0.834438    1.399757
H     -3.129748   -1.355343    0.195951
H     -1.774728   -2.248532   -0.570652
H     -2.455266   -0.771738   -1.363740
H      0.471328   -1.460206   -0.430252
H      1.269922    0.146316   -2.111437
H      0.098708    1.391412   -1.556124
H     -0.473218   -0.137078   -2.323890
H      1.100684   -0.233820    1.732431
H      3.456728   -0.036313    1.108402
H      2.736906   -1.447834    0.264252
H      3.051565    0.090624   -0.637523
24

C      2.023980    0.870261   -1.213325
C      1.497478   -0.409146   -0.556696
C      0.402392   -0.162152    0.533392
C      0.009611   -1.531053    1.155162
O      0.911750    0.696634    1.544352
O      1.957476    0.113725    2.105209
C     -0.862921    0.558635   -0.069509
C     -1.960722    0.805625    0.983011
C     -1.484015   -0.132456   -1.300132
H      2.358902    1.598673   -0.445517
H      1.247720    1.336235   -1.853939
H      2.891573    0.620817   -1.859943
H      1.122084   -1.095976   -1.343915
H      2.366340   -0.933185   -0.102015
H     -0.655428   -1.393518    2.032610
H      0.908734   -2.079160    1.509125
H     -0.493278   -2.185984    0.415956
H     -0.541906    1.569741   -0.402816
H     -2.730500    1.494001    0.572688
H     -1.539537    1.278831    1.894593
H     -2.465905   -0.141960    1.265292
H     -2.358670    0.452082   -1.657812
H     -1.837168   -1.155563   -1.061080
H     -0.767988   -0.175107   -2.144688
24

C      2.006247   -1.632102    0.479257
C      1.613204   -0.198659    0.116801
C      0.171402   -0.105627   -0.471964
C      0.195612    0.733621   -1.770639
O      0.490205    2.075915   -1.480074
O      0.485209    2.705501   -2.639232
C     -0.859403    0.444889    0.572472
C     -0.943631   -0.453728    1.819126
C     -2.271402    0.592940   -0.024681
H      1.301202   -2.068390    1.215014
H      2.014625   -2.266588   -0.432479
H      3.024851   -1.637607    0.921386
H      1.721352    0.451015    1.011876
H      2.370806    0.166979   -0.610957
H     -0.164614   -1.123881   -0.774191
H      0.962272    0.314879   -2.462728
H     -0.781788    0.652680   -2.295865
H     -0.530525    1.453540    0.908085
H     -1.191884   -1.498106    1.532414
H     -1.725377   -0.081959    2.515603
H      0.012050   -0.443763    2.381317
H     -3.005310    0.862641    0.764721
H     -2.298889    1.411907   -0.772682
H     -2.596214   -0.356097   -0.502581
24

C      2.126401   -0.688487   -0.941722
C      1.659647    0.562541   -0.192757
C      0.358837    0.386032    0.643266
C      0.610367   -0.561707    1.835835
C     -0.920131   -0.010788   -0.184353
C     -1.100332    0.960192   -1.380534
C     -2.173603    0.095395    0.724194
O     -0.765661   -1.344126   -0.641017
O     -1.837504   -1.667332   -1.343967
H      3.124726   -0.494513   -1.387463
H      1.433082   -0.936636   -1.770375
H      2.218952   -1.555225   -0.255976
H      1.539083    1.393648   -0.918895
H      2.480127    0.881903    0.486747
H      0.165767    1.388774    1.088088
H      1.574675   -0.320123    2.331537
H      0.636149   -1.622601    1.511363
H     -0.181569   -0.443538    2.603681
H     -2.092115    0.825345   -1.862928
H     -0.332389    0.776044   -2.159978
H     -1.028768    2.016280   -1.042086
H     -3.108424   -0.012557    0.133425
H     -2.209866    1.081127    1.235875
H     -2.177453   -0.709648    1.488040
24

C      2.913071    0.188314    0.373466
C      1.566487    0.755971   -0.079791
C      0.379773   -0.199234    0.209837
C      0.430658   -1.437113   -0.708569
C     -0.985912    0.562655    0.136947
C     -1.363697    0.992865   -1.291694
C     -2.149362   -0.226444    0.772705
O     -1.854974   -0.531554    2.111338
O     -2.893439   -1.207106    2.564763
H      3.700217    0.961145    0.245724
H      2.874785   -0.099354    1.445536
H      3.197032   -0.692907   -0.237545
H      1.413348    1.715385    0.460652
H      1.625065    0.987295   -1.164991
H      0.501776   -0.560220    1.254856
H      0.458968   -1.140480   -1.778093
H      1.334262   -2.042437   -0.490632
H     -0.441584   -2.098857   -0.540306
H     -0.885787    1.494991    0.737097
H     -2.275774    1.626752   -1.267168
H     -0.553957    1.594052   -1.752806
H     -1.573969    0.110760   -1.932233
H     -3.068819    0.402216    0.734591
H     -2.348168   -1.156698    0.196317
24

C      2.919979    0.086300    0.112949
C      1.574361    0.509396   -0.483398
C      0.351611   -0.213394    0.148237
C      0.465824   -1.739360   -0.058876
C     -0.997744    0.340649   -0.432413
C     -1.169071    1.850306   -0.164315
C     -2.241088   -0.406906    0.103354
O     -2.252367   -0.396117    1.507936
O     -3.331881   -1.064609    1.865545
H      3.704690    0.809040   -0.196178
H      2.870782    0.074412    1.222515
H      3.222937   -0.913177   -0.261477
H      1.495398    1.600836   -0.307651
H      1.591758    0.341342   -1.582389
H      0.368064   -0.019980    1.244071
H      0.392390   -1.994282   -1.137657
H      1.421291   -2.132004    0.341399
H     -0.324252   -2.277667    0.502081
H     -0.985974    0.200551   -1.536636
H     -2.196274    2.185616   -0.422469
H     -0.980265    2.084028    0.905237
H     -0.483885    2.446656   -0.800353
H     -3.164476    0.078852   -0.287802
H     -2.251809   -1.450488   -0.281707
22

C     -1.968213   -1.641571   -0.915363
C     -0.794079   -1.198388   -0.454730
C     -0.483285    0.285325   -0.372678
C     -1.370476    0.984162    0.680621
O     -1.346014    0.285858    1.899421
O     -2.120784    0.967192    2.721388
C      1.034610    0.589409   -0.175194
C      1.872016    0.047017   -1.344819
C      1.607131    0.095021    1.165103
H     -2.740437   -0.950254   -1.238262
H     -2.160323   -2.707875   -0.975766
H     -0.050307   -1.932861   -0.164834
H     -0.759721    0.731254   -1.355470
H     -2.415551    1.025344    0.296757
H     -1.020297    2.031645    0.826465
H      1.157526    1.695675   -0.190720
H      2.921867    0.400271   -1.258638
H      1.467542    0.413502   -2.312291
H      1.875556   -1.063229   -1.354009
H      1.455764   -0.995442    1.297784
H      1.139830    0.635815    2.012919
H      2.697644    0.302129    1.212318
22

C      2.052120    1.496597    0.400988
C      1.543836    0.264917    0.505995
C      0.687327   -0.343792   -0.584005
C      1.151386   -1.779720   -0.865240
C     -0.833900   -0.269515   -0.255208
C     -1.204409   -0.968907    1.067229
C     -1.329097    1.190474   -0.250609
O     -2.731850    1.220081   -0.192598
O     -3.065643    2.496326   -0.179661
H      1.880200    2.101634   -0.483893
H      2.644102    1.909562    1.211157
H      1.718684   -0.295888    1.419962
H      0.853689    0.215814   -1.532893
H      2.193946   -1.768935   -1.249725
H      0.505857   -2.251374   -1.636384
H      1.130519   -2.401270    0.054274
H     -1.379025   -0.793410   -1.072538
H     -0.916051   -2.039195    1.043616
H     -2.302847   -0.930599    1.226182
H     -0.711062   -0.477272    1.931857
H     -0.899074    1.728873    0.624973
H     -0.988708    1.695597   -1.183481
22

C      2.265796    1.659280   -0.048016
C      1.547453    0.724833    0.582284
C      0.732311   -0.305236   -0.169798
C      1.369204   -1.682420    0.073968
C     -0.762654   -0.249716    0.272038
C     -1.597963   -1.355719   -0.402927
C     -1.383035    1.130330   -0.042637
O     -2.685136    1.204022    0.478810
O     -3.146645    2.390426    0.132427
H      2.283042    1.720091   -1.131728
H      2.844711    2.375677    0.525580
H      1.564235    0.692729    1.668290
H      0.782828   -0.103296   -1.264210
H      2.462698   -1.641814   -0.122143
H      0.945203   -2.439677   -0.617652
H      1.207172   -2.010411    1.123383
H     -0.815226   -0.408115    1.373032
H     -1.479803   -1.316771   -1.507058
H     -2.675057   -1.245018   -0.157078
H     -1.292110   -2.357411   -0.036734
H     -0.767209    1.935181    0.416877
H     -1.399816    1.283035   -1.146708
20

C      1.927514    1.766685    1.680097
C      1.341229    1.128043    0.841937
C      0.624537    0.346593   -0.185148
C      1.516124   -0.842703   -0.600749
O      1.134445   -1.313136   -1.867546
O      1.909683   -2.351136   -2.116574
C     -0.773917   -0.088890    0.353221
C     -1.537143   -0.976397   -0.644580
C     -1.643989    1.134903    0.696808
H      2.441683    2.327104    2.415848
H      0.486818    1.009062   -1.068329
H      2.580972   -0.513727   -0.652038
H      1.437059   -1.653505    0.160238
H     -0.632980   -0.677928    1.287595
H     -1.595399   -0.486420   -1.640176
H     -1.043245   -1.964781   -0.745915
H     -2.569667   -1.170872   -0.283141
H     -1.172750    1.744660    1.495687
H     -2.637417    0.810565    1.074155
H     -1.793557    1.771878   -0.201389
20

C      1.575396    2.101091    0.768314
C      1.210343    1.167357    0.098352
C      0.765802    0.025692   -0.722327
C      1.873760   -1.034088   -0.769695
C     -0.592856   -0.564927   -0.239935
C     -0.585559   -0.999122    1.238216
C     -1.773005    0.386353   -0.527605
O     -1.692293    1.539791    0.269493
O     -2.734736    2.278610   -0.058409
H      1.895118    2.920412    1.356699
H      0.633456    0.397204   -1.762093
H      2.782395   -0.610908   -1.249961
H      2.148433   -1.377325    0.250030
H      1.546076   -1.909190   -1.370160
H     -0.786986   -1.480907   -0.842217
H     -1.575109   -1.421439    1.514941
H     -0.371320   -0.140922    1.909249
H      0.172853   -1.789799    1.410926
H     -2.726342   -0.151221   -0.318002
H     -1.765425    0.663340   -1.606723
20

C      2.914981    1.281059    0.779997
C      1.982218    0.835165    0.159571
C      0.841954    0.290959   -0.598737
C      1.145277   -1.156659   -1.012777
C     -0.481786    0.457285    0.204502
C     -0.526665   -0.405067    1.480457
C     -1.719835    0.192218   -0.674302
O     -2.878464    0.615081   -0.002800
O     -3.883638    0.350847   -0.815376
H      3.733452    1.672207    1.324885
H      0.764568    0.896773   -1.527951
H      2.061652   -1.184381   -1.641099
H      1.316015   -1.802688   -0.125823
H      0.315232   -1.576781   -1.616403
H     -0.539624    1.523006    0.524879
H     -0.601647   -1.484395    1.231069
H     -1.409828   -0.129338    2.094935
H      0.379365   -0.239178    2.100025
H     -1.793610   -0.894085   -0.907194
H     -1.619620    0.757973   -1.628767
22

C     -2.602802   -0.417497   -1.116564
C     -1.075113   -0.484954   -1.110905
C     -0.452678    0.140394    0.158770
C     -0.635302    1.666160    0.206077
C      1.020511   -0.225562    0.270886
C      1.501459   -1.038663    1.444926
C      1.899301    0.166111   -0.666110
O      3.247986   -0.167266   -0.567958
O      4.112773    0.229878   -1.509416
H     -2.949912    0.633693   -1.191711
H     -3.016900   -0.880323   -0.195728
H     -2.993020   -0.972813   -1.995432
H     -0.782562   -1.556750   -1.167697
H     -0.689340    0.019095   -2.023454
H     -0.992212   -0.275610    1.037788
H     -0.087005    2.088821    1.075279
H     -1.707295    1.925400    0.329081
H     -0.257442    2.144392   -0.722310
H      0.673721   -1.294719    2.138073
H      2.262022   -0.463417    2.014267
H      1.954750   -1.986649    1.085230
H      1.569058    0.750280   -1.516239
22

C      1.149826    1.121118    1.044633
C      0.780750   -0.023449    0.442116
C      1.850451   -0.939017   -0.102354
O      2.520317   -0.298124   -1.155770
O      3.453634   -1.140492   -1.555278
C     -0.690239   -0.406054    0.312552
C     -1.325780   -0.595679    1.696324
C     -1.490366    0.618694   -0.520996
C     -0.985636    0.715514   -1.961011
H      2.198789    1.386844    1.137112
H      0.415133    1.806441    1.453732
H      2.563220   -1.185014    0.717784
H      1.402423   -1.890503   -0.466059
H     -0.772294   -1.386952   -0.205462
H     -0.737569   -1.328650    2.289121
H     -1.369272    0.364826    2.252276
H     -2.359778   -0.988004    1.590320
H     -1.449924    1.624794   -0.050912
H     -2.557916    0.308498   -0.552409
H     -1.009326   -0.282748   -2.447510
H      0.051080    1.111991   -1.985830
H     -1.637526    1.405967   -2.536497
22

C      1.609265    0.507745   -1.167627
C      1.025357    0.146721   -0.009734
C      1.663414    0.632911    1.272212
C     -0.290693   -0.659365   -0.001076
C     -0.215369   -1.867406   -0.974071
C     -1.457151    0.253022   -0.461427
C     -1.696092    1.450852    0.463091
O     -0.606301   -1.127331    1.300379
O      0.324166   -1.996079    1.659644
H      2.523991    1.093630   -1.170031
H      1.183569    0.244112   -2.128812
H      2.621745    0.097293    1.437837
H      1.009615    0.480754    2.154037
H      1.866684    1.723234    1.204666
H     -0.243120   -1.544321   -2.036067
H      0.718836   -2.447475   -0.814183
H     -1.080318   -2.544925   -0.807246
H     -1.267883    0.633617   -1.489319
H     -2.395754   -0.343263   -0.498264
H     -1.899569    1.112719    1.500831
H     -2.576457    2.023842    0.103157
H     -0.817935    2.129713    0.462003
22

C     -1.398477   -0.903468    0.860918
C     -1.036236   -0.345319   -0.307310
C     -1.905878   -0.587309   -1.514564
C      0.213441    0.523999   -0.436196
C      1.507349   -0.313680   -0.573599
C      1.860789   -1.175382    0.640971
C      0.313295    1.613035    0.650977
O     -0.826340    2.432215    0.604029
O     -0.658602    3.339096    1.547357
H     -0.814868   -0.767810    1.764012
H     -2.293644   -1.514841    0.928542
H     -1.488372   -0.108758   -2.424663
H     -2.920945   -0.174057   -1.334920
H     -1.986076   -1.678329   -1.706828
H      0.132931    1.083879   -1.394582
H      2.359516    0.371482   -0.776093
H      1.412018   -0.979230   -1.459463
H      1.108126   -1.976070    0.789115
H      1.946614   -0.560585    1.559600
H      2.841670   -1.665201    0.465214
H      0.411784    1.158122    1.660094
H      1.221906    2.228210    0.457388
22

C     -1.134009    1.686072    0.137121
C     -1.176001    0.349614   -0.004491
C     -2.440493   -0.370987    0.388182
C      0.011210   -0.446405   -0.542400
C      0.627542    0.183312   -1.805543
C      1.055884   -0.778645    0.563311
C      1.741326    0.454921    1.163019
O      2.055314   -1.630580    0.049766
O      1.557908   -2.853791    0.063801
H     -1.991899    2.229372    0.522530
H     -0.250826    2.259873   -0.118830
H     -2.339237   -1.470112    0.271800
H     -3.282559   -0.025736   -0.248267
H     -2.678228   -0.159730    1.452428
H     -0.388979   -1.425767   -0.885625
H      1.385134   -0.500387   -2.243641
H     -0.163630    0.348514   -2.567868
H      1.116967    1.154452   -1.593742
H      0.522194   -1.275707    1.410025
H      2.270994    1.042228    0.385729
H      2.492213    0.128903    1.913887
H      1.009175    1.100585    1.688811
22

C     -1.308104    1.051373   -1.680696
C     -1.365798    0.477209   -0.466670
C     -2.597445    0.689571    0.375281
C     -0.214437   -0.371262    0.058742
C     -0.002554   -1.603091   -0.836088
C      1.068722    0.480609    0.198690
C      2.165093   -0.221799    1.005464
O      3.237126    0.663377    1.194460
O      4.133727   -0.001382    1.897761
H     -0.441804    0.927344   -2.322086
H     -2.131988    1.655689   -2.048998
H     -2.736251    1.774200    0.569753
H     -2.523283    0.168829    1.352311
H     -3.489127    0.299363   -0.159622
H     -0.483256   -0.747813    1.070033
H      0.420412   -1.314134   -1.821539
H     -0.969516   -2.125211   -1.000943
H      0.686465   -2.323872   -0.349236
H      1.469125    0.744239   -0.804634
H      0.813253    1.429837    0.720480
H      1.753103   -0.533014    1.992602
H      2.516537   -1.120062    0.450816
20

C      1.394793   -1.782127   -0.948198
C      0.503101   -1.662491    0.042924
C      0.051801   -0.341867    0.639183
C      1.207455    0.593585    1.051117
O      1.835969    1.164246   -0.066416
O      2.797778    1.929903    0.411945
C     -1.009703    0.351363   -0.210368
C     -0.769910    0.731889   -1.476987
C     -2.377338    0.621788    0.365845
H      1.658729   -2.768138   -1.316509
H      1.876642   -0.924823   -1.399554
H      0.071129   -2.573507    0.448248
H     -0.428769   -0.626478    1.600652
H      0.791150    1.400748    1.697005
H      1.945270    0.012776    1.651329
H     -1.541940    1.221872   -2.063278
H      0.187774    0.566774   -1.953193
H     -2.585703    1.712504    0.340808
H     -3.148081    0.091602   -0.232855
H     -2.460149    0.280381    1.418303
20

C      2.062544    0.759957    1.139442
C      1.517142    0.865068   -0.078118
C      0.574087   -0.162157   -0.665991
C      1.182014   -1.572802   -0.698380
C     -0.794057   -0.114947    0.006063
C     -1.001377   -0.648856    1.223511
C     -1.953074    0.554210   -0.695144
O     -2.359831    1.676017    0.043631
O     -3.393221    2.179218   -0.603892
H      1.866187   -0.090047    1.781606
H      2.728693    1.536669    1.500573
H      1.761371    1.738141   -0.676833
H      0.442863    0.124008   -1.732165
H      2.118885   -1.565696   -1.295606
H      0.470670   -2.279575   -1.176569
H      1.421298   -1.944592    0.318852
H     -0.210588   -1.143947    1.773428
H     -1.981781   -0.603073    1.688693
H     -2.789118   -0.177099   -0.781953
H     -1.662706    0.869503   -1.722055
18

C      0.964009    2.789867    0.099182
C      0.715927    1.649505   -0.203865
C      0.412812    0.255703   -0.574679
C      1.554163   -0.688698   -0.163556
O      1.795340   -0.615167    1.218307
O      2.776259   -1.463755    1.458645
C     -0.927250   -0.187394   -0.003822
C     -1.203040   -0.075299    1.307582
C     -1.979786   -0.764318   -0.914915
H      1.181676    3.790603    0.365548
H      0.360743    0.232265   -1.684321
H      2.474650   -0.402988   -0.723416
H      1.280105   -1.729987   -0.450840
H     -2.162472   -0.396281    1.702729
H     -0.483884    0.347831    2.001180
H     -2.244561   -1.789773   -0.580310
H     -2.889129   -0.127263   -0.888581
H     -1.625561   -0.824851   -1.964867
18

C     -2.692071    1.303958   -0.908289
C     -1.807045    0.799567   -0.263184
C     -0.726381    0.184273    0.524536
C     -1.185870   -1.155216    1.107925
C      0.526658    0.019971   -0.321268
C      0.509074   -0.715925   -1.447719
C      1.812813    0.693186    0.092209
O      2.767936   -0.284094    0.411268
O      3.867010    0.374632    0.725066
H     -3.468730    1.746421   -1.474725
H     -0.519835    0.863003    1.379277
H     -2.052189   -0.998239    1.786132
H     -1.489120   -1.861253    0.305334
H     -0.363193   -1.613990    1.697192
H      1.404343   -0.829777   -2.051939
H     -0.399021   -1.206747   -1.783451
H      2.172707    1.327083   -0.750377
H      1.642914    1.353147    0.972012
22

C      0.330569   -0.577093   -1.670232
C      0.387060   -0.416316   -0.335424
C      1.571791   -0.969809    0.425583
C      2.800750   -0.083966    0.243545
C     -0.724500    0.303956    0.416794
C     -0.848363    1.762108   -0.048816
C     -2.060130   -0.447782    0.286444
O     -3.012118    0.119886    1.148322
O     -4.117069   -0.579974    0.976282
H      1.122983   -1.095358   -2.201932
H     -0.504492   -0.197651   -2.249523
H      1.798980   -2.000415    0.075282
H      1.342728   -1.039657    1.510348
H      3.648304   -0.499284    0.828382
H      2.588631    0.944879    0.605405
H      3.095928   -0.042569   -0.826451
H     -0.466697    0.333619    1.498544
H     -1.196969    1.819144   -1.101681
H     -1.572231    2.308949    0.591986
H      0.135586    2.271947    0.031809
H     -2.421816   -0.398885   -0.766081
H     -1.898925   -1.515731    0.561414
20

C      1.991862    0.554768    1.053067
C      1.750834    0.686436   -0.249305
C      0.407256    0.539080   -0.865464
C      0.082909    1.391469   -1.844817
C     -0.582993   -0.567689   -0.504125
C      0.070525   -1.830291    0.081459
C     -1.733431   -0.051096    0.378576
O     -1.252317    0.403103    1.615356
O     -2.310718    0.819470    2.283595
H      1.212606    0.332488    1.763358
H      2.993916    0.710851    1.430913
H      2.572742    0.999625   -0.882969
H     -0.871820    1.323783   -2.351870
H      0.762162    2.177972   -2.151771
H     -1.051771   -0.907332   -1.456455
H      0.385059   -1.686485    1.133731
H     -0.656931   -2.669937    0.063066
H      0.950610   -2.127236   -0.527994
H     -2.465948   -0.876160    0.534904
H     -2.254554    0.777180   -0.154161
18

C      3.190888   -0.760595   -0.944728
C      2.177389   -0.352532   -0.435110
C      0.963428    0.134476    0.173574
C      1.039653    1.158322    1.030095
C     -0.352477   -0.539439   -0.172374
C     -1.055363   -1.097315    1.073869
C     -1.275891    0.381561   -0.991188
O     -1.732520    1.458278   -0.214076
O     -2.500210    2.177416   -1.010042
H      4.080494   -1.118842   -1.392119
H      1.992484    1.619968    1.261130
H      0.159948    1.550573    1.521386
H     -0.129958   -1.415480   -0.823371
H     -1.958156   -1.671567    0.774983
H     -0.372784   -1.783606    1.619286
H     -1.368038   -0.283879    1.761650
H     -2.143460   -0.215471   -1.355193
H     -0.715424    0.758132   -1.877772
22

C      2.576265    0.046168    0.927800
C      1.080326   -0.009920    0.798852
C      0.440027   -0.192105   -0.380727
C      1.228634   -0.357114   -1.661427
C     -1.085311   -0.238151   -0.442469
C     -1.667351   -1.331976    0.465597
C     -1.715831    1.139186   -0.165263
O     -1.526662    1.522451    1.172180
O     -2.092007    2.708346    1.290907
H      2.980523    0.893106    0.334933
H      3.027274   -0.906475    0.579491
H      2.853431    0.198080    1.991992
H      0.509121    0.099335    1.714494
H      1.856838    0.541016   -1.838124
H      0.566613   -0.482594   -2.542838
H      1.878452   -1.254659   -1.593165
H     -1.390779   -0.510836   -1.476387
H     -2.762760   -1.417225    0.301155
H     -1.492363   -1.108783    1.538584
H     -1.203264   -2.312041    0.223882
H     -1.255462    1.889512   -0.848652
H     -2.805713    1.084679   -0.390815
22

C      2.123567   -0.873580    0.027153
C      1.643487    0.523758   -0.237635
C      0.353567    0.946980   -0.200011
C      0.074845    2.412891   -0.440583
C     -0.866440    0.051944    0.039861
C     -1.160466   -0.848536   -1.168887
C     -0.804381   -0.737418    1.365282
O     -2.099975   -0.978275    1.862375
O     -2.489073   -2.137453    1.365018
H      1.957815   -1.144825    1.088442
H      3.217634   -0.921944   -0.155440
H      1.643888   -1.602809   -0.650828
H      2.424715    1.247419   -0.455981
H     -0.451372    2.838797    0.439447
H      0.999933    3.005426   -0.607370
H     -0.572948    2.523460   -1.335497
H     -1.747296    0.728695    0.125412
H     -2.202088   -1.229123   -1.112687
H     -0.483298   -1.722675   -1.210738
H     -1.063689   -0.270751   -2.113022
H     -0.269011   -0.127292    2.124155
H     -0.229414   -1.684687    1.251535
22

C      2.293395   -0.031221    0.092578
C      1.012112   -0.429940   -0.657352
O      0.847064   -1.830395   -0.583408
O      1.603601   -2.354655   -1.530334
C     -0.249864    0.286742   -0.084441
C     -0.163734    1.826449   -0.146432
C     -1.562967   -0.234206   -0.694484
C     -2.001680   -0.736435    0.675656
C     -0.705169   -0.224942    1.292103
H      2.185978   -0.211619    1.182723
H      2.534137    1.037836   -0.081143
H      3.153230   -0.627774   -0.278508
H      1.114441   -0.102337   -1.720412
H      0.619285    2.202083    0.544183
H     -1.125578    2.293469    0.157931
H      0.074267    2.155005   -1.180241
H     -1.434905   -1.064823   -1.422734
H     -2.237521    0.562335   -1.079920
H     -2.085099   -1.844541    0.716541
H     -2.896899   -0.200290    1.059866
H     -0.887651    0.582037    2.036018
H     -0.086444   -1.052779    1.701810
22

C      2.445102   -0.242580   -0.282698
C      1.116380    0.235601   -0.872480
C     -0.115026   -0.128697   -0.002995
C     -0.266382   -1.647695    0.235369
C     -0.212690    0.683316    1.298244
C     -1.489924    1.347576    0.798108
C     -1.397081    0.571232   -0.511893
O     -2.501271   -0.285481   -0.670439
O     -2.417875   -0.755492   -1.900138
H      3.283483    0.171255   -0.881703
H      2.559841    0.101297    0.766337
H      2.513859   -1.349602   -0.318984
H      1.172838    1.339223   -1.003205
H      0.993855   -0.210658   -1.883277
H     -0.294095   -2.187050   -0.734880
H     -1.196228   -1.876624    0.798993
H      0.583329   -2.032756    0.836208
H     -0.391953    0.065487    2.205997
H      0.606988    1.422464    1.435462
H     -2.376362    1.074240    1.412312
H     -1.368490    2.443382    0.652707
H     -1.248300    1.261562   -1.377045
22

C      2.200793   -0.474036    0.848608
C      1.404325    0.367980   -0.151308
C     -0.049646   -0.135837   -0.366654
C     -0.117631   -1.598743   -0.850501
C     -0.850203    0.803855   -1.283888
C     -1.841611    1.072110   -0.158806
C     -1.048135    0.158759    0.774818
O     -0.477766    0.877780    1.840813
O     -1.431965    1.004932    2.742774
H      3.169700    0.025045    1.060772
H      1.648295   -0.590385    1.803562
H      2.418064   -1.477431    0.426791
H      1.396683    1.423668    0.198859
H      1.940440    0.354791   -1.125287
H      0.521134   -1.734744   -1.748905
H      0.228262   -2.287336   -0.051732
H     -1.159267   -1.885184   -1.112946
H     -0.302096    1.726667   -1.577543
H     -1.329904    0.300405   -2.152525
H     -2.853571    0.669040   -0.381687
H     -1.843919    2.138303    0.158636
H     -1.621981   -0.739640    1.106150
22

C     -2.561298   -0.104944    0.018857
C     -1.281573   -0.090776    0.857269
C      0.006565   -0.272800    0.014427
C      0.049416   -1.598296   -0.770995
C      1.280850   -0.048311    0.844046
C      1.634413    1.158445   -0.024088
O      2.785162    0.938813   -0.799145
O      3.806308    1.204670   -0.007747
C      0.365830    0.948890   -0.845657
H     -2.503382    0.637603   -0.804108
H     -3.427069    0.152831    0.664542
H     -2.739711   -1.114486   -0.406063
H     -1.341810   -0.902832    1.614124
H     -1.237996    0.874282    1.409438
H      1.031581   -1.731488   -1.274345
H     -0.112707   -2.454659   -0.082692
H     -0.734583   -1.610418   -1.556310
H      1.087621    0.249031    1.898525
H      2.025470   -0.872118    0.767447
H      1.633597    2.130601    0.522713
H     -0.338371    1.802309   -0.732649
H      0.571685    0.703652   -1.911711
22

C     -2.325124    0.886373    0.284651
C     -0.977307    1.028311   -0.425402
C     -0.075126   -0.224758   -0.287556
C     -0.707493   -1.508134   -0.860784
C      0.510819   -0.417078    1.119998
C      1.915129   -0.183036    0.570935
O      2.476994    0.994447    1.091614
O      3.697815    1.058277    0.596398
C      1.341957    0.018044   -0.831166
H     -2.862727    1.857332    0.250988
H     -2.184435    0.599441    1.347567
H     -2.956632    0.127688   -0.222465
H     -0.454914    1.917039   -0.006525
H     -1.161574    1.230055   -1.503016
H      0.013628   -2.353709   -0.834799
H     -1.594223   -1.804903   -0.263153
H     -1.018247   -1.342308   -1.914038
H      0.200496    0.363054    1.850195
H      0.387498   -1.448157    1.519312
H      2.567882   -1.081679    0.672703
H      1.506590    1.047276   -1.221883
H      1.698994   -0.763574   -1.537693
20

C      2.525023   -0.499320    0.094401
C      1.507670    0.152906   -0.478452
C      0.062506   -0.148262   -0.129752
C     -0.359205   -1.562772   -0.576211
C     -0.279559    0.140253    1.339664
C     -1.243564    1.238630    0.907351
C     -0.897131    0.985289   -0.557076
O     -2.025194    0.544659   -1.272288
O     -1.671280    0.553555   -2.542972
H      3.546873   -0.262660   -0.183494
H      2.348545   -1.265014    0.843440
H      1.733878    0.911045   -1.222782
H     -1.420848   -1.766414   -0.318545
H      0.266492   -2.328197   -0.070592
H     -0.230737   -1.670180   -1.674114
H     -0.803183   -0.695073    1.855318
H      0.569737    0.547726    1.932050
H     -0.921093    2.245166    1.253222
H     -2.299724    0.997145    1.160323
H     -0.409208    1.881518   -1.010397
20

C      1.728829   -1.585249    0.707158
C      0.850827   -1.272830   -0.252156
C     -0.253986   -0.249358   -0.038434
C     -1.206672   -0.644880    1.104993
C     -1.012501    0.083864   -1.333539
C     -0.563345    1.535884   -1.229925
C      0.210203    1.220691    0.047608
O      1.592498    1.393057   -0.158038
O      2.125645    1.537202    1.039942
H      2.497210   -2.327715    0.518050
H      1.692676   -1.106983    1.680436
H      0.930056   -1.789155   -1.204508
H     -0.662769   -0.667285    2.072445
H     -1.636108   -1.650853    0.910934
H     -2.042079    0.082582    1.198468
H     -0.606425   -0.403541   -2.247250
H     -2.117870   -0.016695   -1.254404
H     -1.414487    2.228651   -1.049836
H      0.086734    1.840900   -2.079776
H     -0.198435    1.791712    0.916926
20

C     -2.112254    0.901637    0.987100
C     -1.476584   -0.276771    0.945026
C     -0.135537   -0.483079    0.253848
C      0.346493   -1.939343    0.370672
C      0.945444    0.530517    0.659556
C      0.989025    1.052951   -0.775728
O      2.230935    0.789238   -1.376738
O      2.170373    1.332063   -2.577316
C     -0.082858    0.041769   -1.188743
H     -1.694260    1.787755    0.520570
H     -3.066970    0.983577    1.496285
H     -1.949566   -1.125213    1.432200
H      1.325677   -2.079853   -0.136741
H     -0.392815   -2.623071   -0.098548
H      0.462927   -2.216359    1.440221
H      1.904156    0.063631    0.979201
H      0.598268    1.306542    1.376249
H      0.665040    2.117475   -0.851584
H      0.288550   -0.704533   -1.926405
H     -1.016044    0.541065   -1.529126
20

C     -2.224450    1.132601   -0.635125
C     -1.328663    0.185344   -0.932305
C     -0.310172   -0.298921    0.081870
C     -0.960376   -1.046569    1.258830
C      0.678978    0.789867    0.521552
C      1.827613   -0.000797   -0.103975
O      2.395311    0.662845   -1.204256
O      3.256992    1.523575   -0.697912
C      0.849090   -1.082407   -0.553268
H     -2.244525    1.595699    0.346555
H     -2.943208    1.453714   -1.381912
H     -1.346257   -0.248091   -1.928136
H     -0.190579   -1.414413    1.971395
H     -1.536780   -1.917976    0.881589
H     -1.649478   -0.372840    1.810446
H      0.515552    1.774192    0.028043
H      0.789665    0.876691    1.625000
H      2.574362   -0.380443    0.632433
H      1.056974   -2.057860   -0.059997
H      0.789950   -1.174213   -1.660827
18

C      2.091282   -1.957748   -0.498918
C      1.320141   -1.056769   -0.281385
C      0.376312    0.045782   -0.014637
C      1.023118    1.154934    0.832342
C     -0.286688    0.572378   -1.292612
C     -1.641703    0.078442   -0.796536
C     -0.993132   -0.464518    0.474867
O     -1.478503    0.205100    1.612467
O     -1.018959   -0.467968    2.649665
H      2.767992   -2.748566   -0.689880
H      1.912603    1.563301    0.306381
H      1.347718    0.747828    1.813588
H      0.312016    1.990186    1.010363
H     -0.260143    1.680252   -1.392403
H      0.032408    0.048421   -2.221667
H     -2.353441    0.912773   -0.609111
H     -2.058767   -0.728098   -1.438591
H     -1.092254   -1.575729    0.536067
18

C      1.935833   -0.396863    2.107509
C      1.232940   -0.090452    1.176937
C      0.371500    0.286627    0.035874
C      1.119556    1.173618   -0.969655
C     -0.970197    0.877319    0.484852
C     -1.706089   -0.284630   -0.174254
C     -0.374744   -0.888341   -0.623886
O     -0.120440   -2.123928    0.000512
O     -0.794473   -3.022931   -0.690619
H      2.552572   -0.665935    2.924216
H      1.993420    0.625738   -1.382670
H      1.479437    2.098182   -0.469349
H      0.457021    1.465836   -1.813079
H     -1.116937    0.887559    1.588394
H     -1.217760    1.851750    0.008143
H     -2.251215   -0.913766    0.563687
H     -2.331837    0.042756   -1.033025
H     -0.258586   -0.922540   -1.733586
18

C     -2.177583    0.316149   -1.990967
C     -1.391194    0.041017   -1.119394
C     -0.428667   -0.295818   -0.052579
C     -0.649291   -1.710783    0.499584
C     -0.342762    0.782433    1.033485
C      1.106057    1.060968    0.639286
O      1.991929    0.705832    1.669966
O      3.193278    1.041607    1.241326
C      1.023422   -0.009564   -0.449867
H     -2.867712    0.557738   -2.755927
H     -1.672370   -1.798484    0.923881
H     -0.532434   -2.459047   -0.313346
H      0.085318   -1.943552    1.300697
H     -0.443152    0.386188    2.068904
H     -0.997681    1.663452    0.848439
H      1.251592    2.096730    0.251885
H      1.714167   -0.864128   -0.272258
H      1.137081    0.429262   -1.466461
18

C     -1.944899    2.021124    0.984040
C     -1.315244    1.090652    0.546459
C     -0.544319   -0.048197    0.010900
C     -1.421164   -1.006526   -0.806593
C      0.302544   -0.747104    1.080433
C      1.573890   -0.313311    0.354092
O      2.318889    0.592563    1.127108
O      3.408970    0.846903    0.429425
C      0.733418    0.388456   -0.713734
H     -2.497384    2.837829    1.368152
H     -2.234488   -1.415191   -0.169484
H     -1.874611   -0.467865   -1.666036
H     -0.821682   -1.855857   -1.200063
H      0.188127   -1.853814    1.088806
H      0.209278   -0.300759    2.096610
H      2.164806   -1.179525   -0.026126
H      0.889576    1.490977   -0.733276
H      0.864294   -0.080357   -1.714059
22

C      2.773672   -0.093845    0.695469
C      1.479007    0.285398   -0.035311
C      0.312308   -0.591423    0.463875
C     -1.112090   -0.087711    0.106250
C     -2.194867   -0.229793    1.182997
C     -1.579907   -0.492247   -1.291492
C     -1.353084    0.976913   -0.967081
O      1.651210    0.086122   -1.419488
O      2.288862    1.147746   -1.877677
H      2.662369    0.065539    1.789282
H      3.613242    0.540178    0.340161
H      3.027098   -1.159188    0.507050
H      1.242334    1.350123    0.202965
H      0.372529   -0.648756    1.573142
H      0.442388   -1.632925    0.095069
H     -2.271706   -1.292642    1.494806
H     -3.191830    0.106160    0.824472
H     -1.917795    0.383574    2.065633
H     -2.653715   -0.757562   -1.399502
H     -0.808474   -0.912969   -1.971163
H     -0.482366    1.404779   -1.499638
H     -2.299184    1.552530   -0.879819
22

C      2.841642   -0.342771    0.174092
C      1.360465   -0.701007    0.278286
C      0.457982    0.382875   -0.340151
O      0.623505    0.399877   -1.741967
O      1.392847    1.433275   -2.031791
C     -1.026393    0.085334   -0.029229
C     -1.666892   -1.203850   -0.564779
C     -1.945418    1.302041    0.020444
C     -1.556808    0.585136    1.309877
H      3.447933   -1.124864    0.677798
H      3.040745    0.631882    0.668346
H      3.154962   -0.288544   -0.889664
H      1.106845   -0.825739    1.353865
H      1.193145   -1.674066   -0.232228
H      0.729307    1.362586    0.128590
H     -1.517454   -1.268898   -1.662510
H     -2.758039   -1.243443   -0.357766
H     -1.195304   -2.085232   -0.083603
H     -3.003272    1.135263   -0.275157
H     -1.458011    2.293485   -0.097066
H     -0.838419    1.154251    1.937700
H     -2.383370   -0.007589    1.756913
22

C      3.017909    0.636959   -0.009590
C      1.742482   -0.185255   -0.170590
C      0.494528    0.682480    0.036578
C     -0.798054   -0.151583   -0.042500
C     -1.203466   -0.758199   -1.395355
C     -1.161935   -0.961415    1.198792
C     -1.924875    0.321741    0.878853
O     -3.226558    0.057451    0.435852
O     -3.625789    1.174999   -0.136394
H      3.902743   -0.013253   -0.174809
H      3.076816    1.062088    1.015045
H      3.040356    1.463181   -0.751870
H      1.753007   -1.013052    0.571272
H      1.733830   -0.625336   -1.190330
H      0.456880    1.470467   -0.746459
H      0.570673    1.193898    1.022286
H     -1.346067    0.055308   -2.136799
H     -0.406708   -1.438612   -1.758318
H     -2.142091   -1.348209   -1.330828
H     -0.461399   -0.863619    2.055503
H     -1.729007   -1.899178    1.013302
H     -1.763277    1.139139    1.616360
22

C      2.165690    0.911435   -0.781707
C      1.745679   -0.535794   -0.537695
C      0.243279   -0.784731   -0.763742
C     -0.687205    0.048244    0.157780
C     -1.235279    1.377858   -0.378419
C     -0.469426   -0.052562    1.667156
C     -1.695416   -0.703052    1.038424
O     -1.598164   -2.099621    1.052747
O     -2.544671   -2.515819    0.236199
H      3.273946    0.979979   -0.775543
H      1.778540    1.566769    0.025895
H      1.795329    1.264875   -1.767404
H      2.040081   -0.836563    0.489361
H      2.312208   -1.184130   -1.240974
H      0.067835   -1.872912   -0.643528
H     -0.003180   -0.555635   -1.823181
H     -1.850413    1.910058    0.379007
H     -1.870445    1.180432   -1.267127
H     -0.407656    2.048194   -0.681007
H     -0.699076    0.865852    2.248207
H      0.292370   -0.781719    2.014930
H     -2.654027   -0.231160    1.350620
22

C     -1.275555    0.330343    1.819025
C     -1.355592   -0.535489    0.556509
C     -1.819299    0.196414   -0.704083
C     -0.369006   -0.280911   -0.590812
C     -0.034946   -1.494661   -1.469302
C      0.677405    0.853274   -0.506031
C      1.950072    0.399537    0.210055
O      2.826219    1.488612    0.330593
O      3.891345    1.026484    0.956955
H     -1.230170    1.418365    1.610005
H     -2.182027    0.146680    2.432082
H     -0.390547    0.033368    2.417393
H     -1.733845   -1.575978    0.654127
H     -1.982261    1.289962   -0.592831
H     -2.485608   -0.414258   -1.350146
H      0.802870   -2.063946   -1.016997
H      0.266362   -1.152224   -2.481360
H     -0.898885   -2.185772   -1.575224
H      0.941562    1.165419   -1.539552
H      0.277446    1.754937    0.001561
H      1.688701    0.009356    1.218646
H      2.435761   -0.409513   -0.380614
22

C     -1.792294   -0.294890    1.285865
C     -1.450620   -0.325311   -0.207898
C     -0.947856    1.011098   -0.748643
C      0.006093   -0.192511   -0.695611
C      0.270980   -0.855674   -2.055149
C      1.195325   -0.206471    0.319768
C      1.571199    1.174710    0.881596
O      0.937655   -1.120665    1.360991
O      2.107167   -1.463622    1.869870
H     -1.133167    0.370795    1.876515
H     -1.728497   -1.324070    1.695551
H     -2.835962    0.062298    1.407449
H     -2.166862   -0.835242   -0.888077
H     -0.843706    1.804454    0.018611
H     -1.363056    1.258474   -1.749044
H      1.104690   -0.330604   -2.566781
H      0.557013   -1.916871   -1.898507
H     -0.618126   -0.828125   -2.721624
H      2.087463   -0.549046   -0.258453
H      2.548083    1.114204    1.406377
H      0.819412    1.536361    1.611051
H      1.675066    1.910707    0.056143
22

C     -2.089310   -1.155968   -0.112742
C     -1.030364   -0.367318    0.654244
C      0.129320    0.090733   -0.264038
C     -0.206455    0.917202   -1.518287
O     -0.922239    2.063298   -1.141273
O     -1.212665    2.692907   -2.263551
C      1.282152   -0.900821   -0.421036
C      1.498721    0.396989    0.361688
C      1.660829    0.240352    1.878339
H     -2.843259   -1.553972    0.598801
H     -1.621834   -2.009028   -0.649120
H     -2.613309   -0.501769   -0.840568
H     -0.671372   -1.013561    1.481549
H     -1.504375    0.527335    1.111165
H     -0.814406    0.290742   -2.208281
H      0.721020    1.214711   -2.060210
H      1.770018   -0.910008   -1.419012
H      1.197449   -1.829262    0.183270
H      2.120229    1.157544   -0.158501
H      2.700897    0.509616    2.155975
H      1.477843   -0.795902    2.231553
H      0.971110    0.936178    2.400036
22

C      2.469092   -0.194539   -0.255237
C      1.247374    0.510573    0.329142
C     -0.031474   -0.346124    0.184310
C     -0.023277   -1.755702    0.801385
C     -1.401304    0.356517    0.206040
C     -1.439833    1.880956    0.357753
C     -0.816868   -0.148988   -1.116339
O     -1.432606   -1.314931   -1.588960
O     -2.391991   -0.896804   -2.389528
H      3.346822    0.484113   -0.209076
H      2.285585   -0.466874   -1.316449
H      2.707453   -1.109988    0.325818
H      1.150989    1.488651   -0.185819
H      1.425449    0.712823    1.406871
H      0.635735   -2.421506    0.206405
H      0.363092   -1.702848    1.840642
H     -1.035928   -2.211373    0.832792
H     -2.257442   -0.232108    0.601719
H     -2.498570    2.213244    0.361049
H     -0.924589    2.411588   -0.470274
H     -0.981427    2.170845    1.326177
H     -0.396281    0.572473   -1.852542
22

C      2.086571   -0.286535    1.123184
C      0.657315   -0.720789    0.804914
C      0.109078   -0.028299   -0.468903
C      0.931427   -0.151981   -1.759965
C     -0.653125    1.293506   -0.312812
O     -0.850939    1.721033    1.007186
O      0.056983    2.654559    1.207427
C     -1.414683    0.012823   -0.686843
C     -2.321164   -0.638695    0.369600
H      2.400691   -0.726262    2.093282
H      2.148522    0.819422    1.198216
H      2.787055   -0.643549    0.339427
H      0.038773   -0.510240    1.700082
H      0.644268   -1.820096    0.645148
H      1.156842   -1.221053   -1.955871
H      1.884814    0.405609   -1.653502
H      0.395270    0.261502   -2.641179
H     -0.600610    2.055179   -1.123062
H     -1.749848   -0.036095   -1.745330
H     -3.379108   -0.448110    0.094547
H     -2.172252   -0.255759    1.398285
H     -2.155880   -1.736170    0.366170
22

C      2.254996    0.971017   -0.487879
C      1.674232   -0.091742    0.442971
C      0.135562   -0.327674    0.405173
C     -0.436620   -0.961574    1.687018
C     -0.309890   -1.063481   -0.871056
C     -0.847210    0.338604   -0.591636
C     -2.320189    0.489927   -0.176319
O     -0.319090    1.356612   -1.398732
O     -0.831968    1.169456   -2.599683
H      3.350852    1.039731   -0.321461
H      1.816712    1.966086   -0.263490
H      2.094809    0.697819   -1.551420
H      1.952096    0.201733    1.478699
H      2.188764   -1.056692    0.241727
H     -0.512475   -0.182859    2.474117
H      0.245156   -1.761291    2.046320
H     -1.437056   -1.418914    1.547219
H     -1.048724   -1.882483   -0.737760
H      0.433579   -1.105161   -1.695658
H     -2.816991   -0.490628   -0.024817
H     -2.883213    1.027972   -0.966912
H     -2.383333    1.083544    0.759460
22

C     -2.323500    0.911341   -0.531232
C     -0.830549    0.695189   -0.768056
C     -0.279587   -0.485356    0.065704
C     -0.949764   -1.858475   -0.090685
C      0.193401   -0.145058    1.478083
C      1.218142   -0.529544    0.406751
C      2.119801    0.607598   -0.095863
O      3.434576    0.360577    0.325199
O      4.165446    1.335369   -0.181096
H     -2.657412    1.821041   -1.073540
H     -2.525992    1.049137    0.552261
H     -2.908786    0.047817   -0.910936
H     -0.316271    1.648260   -0.528716
H     -0.661392    0.483063   -1.845268
H     -0.998573   -2.126392   -1.166719
H     -1.979866   -1.824237    0.320439
H     -0.396437   -2.659285    0.445279
H      0.144860    0.931369    1.748598
H      0.021569   -0.935855    2.239204
H      1.662092   -1.541598    0.528411
H      1.791007    1.598293    0.290584
H      2.077235    0.616746   -1.208402
22

C     -2.367919    1.030193    0.478266
C     -0.973756    0.445325    0.737592
C     -0.831486   -1.053040    0.481007
C     -0.142300   -0.050646   -0.458386
C     -0.759318    0.113291   -1.858147
C      1.369837    0.274892   -0.329496
C      2.154989   -0.599419    0.652648
O      3.513615   -0.254455    0.592216
O      4.125069   -1.047339    1.451211
H     -2.265937    2.010844   -0.031155
H     -2.873589    1.193914    1.452338
H     -3.016713    0.368202   -0.131586
H     -0.404177    0.816893    1.616838
H     -0.217475   -1.563831    1.248306
H     -1.736273   -1.553145    0.074677
H     -0.795862    1.190138   -2.125375
H     -1.780089   -0.314588   -1.931949
H     -0.129479   -0.414657   -2.604202
H      1.844300    0.162836   -1.328689
H      1.486490    1.342413   -0.040977
H      2.025877   -1.669186    0.370094
H      1.774197   -0.428636    1.684771
22

C     -2.233753    0.731541    0.607789
C     -0.856494    0.155838    0.957022
C     -0.706237   -1.356135    0.777260
C      0.010587   -0.398497   -0.183841
C     -0.553406   -0.356172   -1.617079
C      1.545582   -0.212656   -0.023209
C      1.940730    1.221805   -0.376933
O      1.978420   -0.476298    1.295580
O      2.492317   -1.692947    1.298587
H     -2.102992    1.700986    0.083663
H     -2.794114    0.914504    1.547876
H     -2.844642    0.055702   -0.025560
H     -0.315279    0.578572    1.830407
H     -0.099135   -1.828512    1.575527
H     -1.604264   -1.875083    0.379486
H      0.137472   -0.884432   -2.306703
H     -1.544883   -0.846514   -1.704633
H     -0.646563    0.698088   -1.951162
H      2.054757   -0.874171   -0.766219
H      1.420990    1.944606    0.287723
H      1.683901    1.449579   -1.433031
H      3.037008    1.350193   -0.252551
22

C     -2.015077   -1.562611    0.046990
C     -1.659706   -0.075371    0.035364
C     -0.143388    0.261365    0.027689
C      0.251686    1.589939   -0.650043
O     -0.548866    2.627396   -0.146618
O     -0.206667    3.708292   -0.821229
C      0.546900    0.030295    1.376643
C      0.907158   -0.858051    0.187206
C      2.300778   -0.631609   -0.411653
H     -3.117578   -1.677362   -0.019622
H     -1.678288   -2.039418    0.991217
H     -1.559019   -2.076366   -0.825688
H     -2.138479    0.416562    0.909771
H     -2.122149    0.365489   -0.874276
H      0.085446    1.476052   -1.744916
H      1.321551    1.842104   -0.484607
H     -0.061085   -0.489315    2.147676
H      1.307954    0.785258    1.669272
H      0.561189   -1.905800    0.290966
H      2.843737    0.217128    0.054209
H      2.212729   -0.459123   -1.504647
H      2.911174   -1.544852   -0.253705
22

C      2.454345    0.467900   -0.088662
C      1.420521   -0.188013    0.823092
C      0.080223   -0.408952    0.088577
C      0.086720   -1.328324   -1.145992
C     -0.882512    0.789061    0.114915
C     -1.785843    1.013284   -1.101646
C     -1.198434   -0.462485    0.937190
O     -0.986991   -0.291715    2.311347
O     -2.145553    0.113559    2.790833
H      3.384970    0.662702    0.484861
H      2.066974    1.433815   -0.477176
H      2.701975   -0.198969   -0.941148
H      1.296093    0.458891    1.718468
H      1.809879   -1.169210    1.169387
H      0.480306   -0.773279   -2.022869
H      0.745311   -2.201278   -0.955129
H     -0.921366   -1.719760   -1.394896
H     -0.548345    1.674722    0.698108
H     -1.169747    1.357519   -1.958142
H     -2.349037    0.104400   -1.399088
H     -2.523329    1.806006   -0.858883
H     -2.016159   -1.139875    0.602736
22

C     -2.306953    0.030177    0.925003
C     -1.701338    0.555376   -0.373586
C     -0.260775    0.045292   -0.563932
C     -0.055074   -1.464137   -0.784039
C      0.662165    0.965605   -1.367207
C      0.825927    0.859311    0.150043
C      2.091559    0.136570    0.628435
O      1.802373   -0.550610    1.816185
O      2.934641   -1.113404    2.192397
H     -3.330062    0.442687    1.051232
H     -1.687669    0.342597    1.792665
H     -2.374709   -1.077952    0.902369
H     -1.736710    1.667064   -0.353271
H     -2.323660    0.217595   -1.229761
H     -0.880143   -1.864687   -1.409336
H     -0.069463   -1.988286    0.194066
H      0.896667   -1.698554   -1.303657
H      0.218111    1.928588   -1.697906
H      1.453209    0.467883   -1.967856
H      0.481803    1.753107    0.714346
H      2.867742    0.910760    0.819968
H      2.492358   -0.564981   -0.136158
22

C      0.999387   -0.430546    1.671558
C      0.750693    0.249578    0.313451
C      1.538928   -0.461587   -0.803601
O      2.918105   -0.340379   -0.568069
O      3.511037   -0.984364   -1.555074
C     -0.753077    0.409840   -0.078624
C     -1.113938    1.579227   -1.006418
C     -1.531932   -0.878096   -0.342466
C     -1.868263   -0.028763    0.877008
H      2.086447   -0.452911    1.897946
H      0.508828    0.144932    2.484740
H      0.623644   -1.475308    1.671461
H      1.166627    1.277849    0.403748
H      1.292096    0.003638   -1.784189
H      1.251232   -1.536951   -0.838678
H     -2.200628    1.613227   -1.237018
H     -0.561100    1.489189   -1.963801
H     -0.832250    2.536198   -0.519846
H     -2.304892   -0.832042   -1.139407
H     -1.028059   -1.831799   -0.080085
H     -1.609439   -0.544526    1.822651
H     -2.843444    0.493596    0.774712
22

C     -1.113311    0.936649    1.495992
C     -0.957839   -0.199921    0.472394
C     -2.078676   -0.125173   -0.574895
C      0.443744   -0.295457   -0.207706
C      0.871011   -1.681434   -0.721934
C      0.860138    0.878003   -1.096634
C      1.568501    0.655008    0.236065
O      2.872021    0.179608    0.049501
O      3.230682   -0.299065    1.223291
H     -0.368827    0.823395    2.312157
H     -2.122145    0.895617    1.959703
H     -0.992652    1.929705    1.014379
H     -1.107244   -1.146048    1.038343
H     -3.070446   -0.186977   -0.077941
H     -2.005015   -0.971491   -1.288863
H     -2.029289    0.827516   -1.142800
H      0.079322   -2.106325   -1.371960
H      1.023262   -2.361478    0.141948
H      1.810702   -1.648049   -1.313147
H      1.470518    0.624979   -1.990523
H      0.192352    1.764528   -1.091821
H      1.423193    1.506411    0.934452
22

C     -1.133999    0.354530   -1.614508
C     -0.678486    0.175125   -0.153584
C     -1.114993   -1.234596    0.315140
C     -1.384995    1.234303    0.714865
C      0.860640    0.438186   -0.108641
C      1.574912    0.209897    1.221166
C      1.822329   -0.737611    0.055021
O      3.077106   -0.524621   -0.524691
O      2.998231   -1.075896   -1.718634
H     -2.231470    0.204258   -1.709683
H     -0.892996    1.376002   -1.981528
H     -0.621923   -0.380258   -2.273158
H     -0.693184   -2.021779   -0.345145
H     -2.221784   -1.329485    0.273004
H     -0.807595   -1.434342    1.361522
H     -1.109506    1.113942    1.784223
H     -1.097938    2.259435    0.394539
H     -2.489555    1.140718    0.631359
H      1.260513    1.315999   -0.663076
H      2.401491    0.924305    1.424071
H      0.974976   -0.227374    2.044276
H      1.508225   -1.780739    0.269346
22

C     -2.549065    0.549420   -0.711400
C     -1.376011    0.386862    0.260138
C     -1.135752   -1.071679    0.659996
C      0.379893   -1.255865    0.757363
C      1.008621    0.104143    0.441228
C      2.329704   -0.021697   -0.330809
O      2.875137    1.253954   -0.543109
O      3.999684    1.059129   -1.204619
C     -0.058527    0.868932   -0.333710
H     -2.678138    1.621585   -0.971235
H     -3.485023    0.186940   -0.235783
H     -2.373870   -0.027641   -1.644833
H     -1.588328    0.979922    1.178819
H     -1.544542   -1.773058   -0.101453
H     -1.622763   -1.289939    1.635604
H      0.673342   -1.591905    1.775968
H      0.703880   -2.028618    0.024671
H      1.201006    0.637126    1.400663
H      2.149577   -0.530171   -1.306187
H      3.036061   -0.637866    0.271245
H      0.061208    1.967510   -0.210265
H     -0.006095    0.612915   -1.416412
22

C      2.626924   -0.291579   -0.152937
C      1.274480    0.407985   -0.324654
C      0.459054   -0.160076   -1.493627
C     -0.953728   -0.404150   -0.965658
C     -1.044876    0.329805    0.383872
C     -2.014085   -0.362656    1.367667
O     -1.383638    1.694358    0.205349
O     -2.614625    1.748301   -0.272149
C      0.388794    0.269059    0.912693
H      3.171753    0.145529    0.710701
H      2.489336   -1.380434    0.021855
H      3.243174   -0.149972   -1.066102
H      1.458046    1.491167   -0.507721
H      0.886036   -1.111243   -1.882734
H      0.432419    0.575650   -2.327395
H     -1.094301   -1.498452   -0.816753
H     -1.716679   -0.058910   -1.695826
H     -2.055406    0.204413    2.322009
H     -3.037752   -0.416590    0.940422
H     -1.684644   -1.401219    1.586650
H      0.591611    1.080013    1.646772
H      0.578107   -0.711002    1.407564
22

C      2.010310    1.250321   -1.044943
C      0.669663    0.533092   -0.853595
C      0.818811   -0.993077   -0.805788
C      0.061747   -1.473669    0.431252
C     -0.808334   -0.302939    0.903634
C     -2.198537   -0.371526    0.228537
O     -0.932819   -0.364159    2.311466
O     -1.567994    0.726668    2.702744
C     -0.020099    0.935315    0.450373
H      1.852400    2.349708   -1.059960
H      2.713791    0.998620   -0.222218
H      2.465681    0.947114   -2.011603
H      0.003317    0.802695   -1.704110
H      1.883090   -1.312581   -0.745742
H      0.373726   -1.443373   -1.720291
H      0.801299   -1.733166    1.222143
H     -0.535089   -2.386351    0.210705
H     -2.752340   -1.265066    0.587799
H     -2.799778    0.530882    0.468627
H     -2.102531   -0.437192   -0.876501
H     -0.675152    1.822003    0.301582
H      0.738839    1.186681    1.225887
22

C      2.036806   -1.027134   -0.837450
C      1.366518   -0.143128    0.220573
C      0.230551   -0.874323    0.956726
C     -1.050262   -0.069486    0.708600
C     -1.894004   -0.709171   -0.409167
C     -0.554828    1.340491    0.354057
O     -1.464386    2.062776   -0.442204
O     -2.409136    2.492213    0.373465
C      0.750415    1.118698   -0.394351
H      2.832817   -0.455278   -1.360148
H      2.501682   -1.911376   -0.351882
H      1.293605   -1.378006   -1.585532
H      2.139636    0.160904    0.962133
H      0.449040   -0.877980    2.047807
H      0.126995   -1.936625    0.640426
H     -1.665094   -0.033087    1.635374
H     -2.831069   -0.134241   -0.563760
H     -2.178553   -1.744398   -0.124233
H     -1.328921   -0.744705   -1.364906
H     -0.317645    1.897576    1.293407
H      1.427913    1.993166   -0.281188
H      0.537920    0.973115   -1.477745
22

C      2.489128   -1.013556    0.024378
C      1.084745   -0.660486    0.523383
C      0.906862    0.834277    0.775420
C     -0.576819    1.139482    0.534507
O     -1.202482    1.428466    1.762949
O     -2.346066    2.018435    1.469050
C     -1.181431   -0.131063   -0.101312
C     -2.076222    0.180336   -1.306368
C      0.001201   -1.018261   -0.481779
H      2.718766   -0.484450   -0.925498
H      3.243252   -0.724934    0.786993
H      2.563580   -2.108234   -0.148177
H      0.890208   -1.211180    1.471921
H      1.521222    1.425021    0.058851
H      1.226926    1.098739    1.807495
H     -0.638867    2.016078   -0.155900
H     -1.790296   -0.673956    0.657596
H     -1.507831    0.725249   -2.090561
H     -2.469846   -0.763959   -1.739027
H     -2.937061    0.805437   -0.988367
H      0.346234   -0.785292   -1.515001
H     -0.265202   -2.096148   -0.420554
22

C     -2.167326    1.127221   -0.218265
C     -1.210441   -0.057123   -0.405652
C     -1.058453   -0.882415    0.883660
C      0.432497   -0.949891    1.192039
C      1.135778   -0.600461   -0.112485
C      2.543554   -0.038901    0.113688
C      0.206180    0.394997   -0.802786
O      0.393326    0.331363   -2.197552
O     -0.089244    1.455574   -2.692127
H     -2.266907    1.695053   -1.166773
H     -1.796312    1.811505    0.574934
H     -3.173853    0.756810    0.070840
H     -1.623152   -0.717962   -1.201876
H     -1.605094   -0.438278    1.745181
H     -1.452199   -1.909721    0.718609
H      0.675373   -0.201263    1.979440
H      0.726893   -1.960739    1.549519
H      1.212811   -1.524941   -0.730242
H      3.013058    0.206542   -0.862439
H      3.173440   -0.796471    0.626487
H      2.510491    0.880560    0.736884
H      0.419579    1.418540   -0.405205
22

C     -2.486337    0.333013    0.310464
C     -1.200014   -0.018407   -0.447383
C     -0.703802   -1.436628   -0.149684
C      0.824125   -1.384268   -0.218530
C      1.191237    0.061002   -0.565748
C      2.517190    0.509026    0.062324
C     -0.014111    0.903264   -0.139881
O      0.058043    1.185050    1.243383
O     -0.459436    2.387313    1.415727
H     -2.788480    1.376303    0.078810
H     -2.347800    0.230425    1.407848
H     -3.304982   -0.347435   -0.006421
H     -1.416330    0.053287   -1.538185
H     -1.016292   -1.766053    0.866411
H     -1.109860   -2.154909   -0.895196
H      1.248372   -1.679419    0.767120
H      1.210844   -2.081215   -0.993948
H      1.293349    0.138394   -1.672878
H      3.349063   -0.106818   -0.340538
H      2.498372    0.396819    1.167351
H      2.713215    1.572992   -0.188883
H     -0.056365    1.828265   -0.766281
22

C     -2.610351    0.612447   -0.496728
C     -1.301813    0.462981    0.286106
C     -1.113757   -0.952145    0.829650
C      0.387209   -1.163529    0.863591
C      0.917678   -0.397670   -0.345222
C      2.366497    0.069014   -0.144544
O      2.821987    0.704592   -1.310051
O      4.063181    1.073106   -1.057494
C     -0.062532    0.762824   -0.570244
H     -2.716716    1.657590   -0.857379
H     -3.473846    0.377637    0.161340
H     -2.627456   -0.072790   -1.371511
H     -1.322238    1.170091    1.146421
H     -1.569361   -1.704953    0.147569
H     -1.559205   -1.061267    1.842421
H      0.644477   -2.243611    0.806031
H      0.792036   -0.740032    1.810321
H      0.879040   -1.075010   -1.229095
H      3.001517   -0.820448    0.071865
H      2.419155    0.768983    0.721311
H      0.374524    1.736742   -0.255667
H     -0.310024    0.835450   -1.652811
22

C      2.578093   -0.324381   -0.503477
C      1.304936   -0.055141    0.305604
C      0.246469   -1.154199    0.124081
C     -1.060748   -0.444037   -0.248282
C     -2.282328   -1.054676    0.447051
C     -0.855199    1.024923    0.119392
O     -1.631948    1.851115   -0.714273
O     -1.621331    3.049662   -0.161526
C      0.634156    1.258917   -0.095963
H      3.305804    0.500615   -0.349714
H      3.045917   -1.273541   -0.165896
H      2.346987   -0.403724   -1.587643
H      1.578791    0.004273    1.383551
H      0.521803   -1.876535   -0.676489
H      0.143837   -1.723722    1.074825
H     -1.202878   -0.525702   -1.350648
H     -3.201329   -0.508599    0.145593
H     -2.178029   -0.999544    1.552044
H     -2.392133   -2.119218    0.149804
H     -1.104756    1.181586    1.197574
H      1.001864    2.105226    0.524293
H      0.822022    1.486702   -1.169901
22

C      2.588941   -0.379114   -0.248086
C      1.283501    0.172748    0.335424
C      0.252347   -0.933446    0.612474
C     -0.983625   -0.581099   -0.216695
C     -2.295121   -1.018037    0.448209
C     -0.890723    0.923986   -0.474659
O     -1.400754    1.646609    0.623816
O     -1.643324    2.868392    0.186824
C      0.608056    1.171549   -0.612548
H      3.294908    0.453962   -0.451710
H      3.064093   -1.072336    0.478179
H      2.395536   -0.928190   -1.194834
H      1.519457    0.692992    1.291343
H      0.623041   -1.945580    0.336003
H      0.010330   -0.941168    1.698832
H     -0.904794   -1.104029   -1.197654
H     -3.157801   -0.706946   -0.178337
H     -2.403320   -0.570066    1.458985
H     -2.313674   -2.124020    0.548459
H     -1.433001    1.175397   -1.417980
H      0.882478    2.218375   -0.357236
H      0.903447    0.980020   -1.668809
22

C     -2.476224    0.495092   -0.268058
C     -1.044104    0.314227    0.250840
C     -0.784444   -1.085867    0.786826
C      0.728603   -1.260513    0.737194
C      1.264466   -0.230849   -0.275226
C      2.286096    0.715760    0.369826
C      0.039248    0.540397   -0.807038
O     -0.366919   -0.000241   -2.044839
O      0.405882    0.549330   -2.963312
H     -3.195802    0.374472    0.569357
H     -2.597620    1.514428   -0.691982
H     -2.719564   -0.253399   -1.052042
H     -0.882077    1.041597    1.079409
H     -1.263538   -1.848639    0.132768
H     -1.172324   -1.198731    1.822753
H      1.151221   -1.098515    1.754028
H      0.985560   -2.294612    0.418833
H      1.776262   -0.765462   -1.106982
H      2.668474    1.433870   -0.386522
H      3.147078    0.134423    0.763272
H      1.822852    1.284853    1.204573
H      0.226874    1.638383   -0.897797
20

C     -2.566496   -0.153463   -0.231631
C     -1.135461    0.336958   -0.470611
C     -0.282577   -0.686683   -1.228403
C      1.152422   -0.472882   -0.758902
C      1.020376    0.245456    0.541251
C      2.020859    0.532765    1.391622
O      3.370410    0.228153    1.170006
O      3.825171   -0.293909    0.023344
C     -0.389316    0.625070    0.832853
H     -3.145191    0.622802    0.312622
H     -2.569406   -1.089407    0.367467
H     -3.065941   -0.348247   -1.204401
H     -1.175654    1.273867   -1.071735
H     -0.597065   -1.723455   -0.972073
H     -0.370559   -0.547149   -2.327898
H      1.658152   -1.453922   -0.626909
H      1.706141    0.160006   -1.485893
H      1.777691    1.036217    2.319128
H     -0.766905    0.004489    1.675263
H     -0.466651    1.703335    1.093992
20

C      2.263497    0.211707   -1.384017
C      1.164890    0.052597   -0.636963
C     -0.180998   -0.212530   -1.214250
C     -1.032208   -0.588640    0.000340
C     -2.479853   -0.105221   -0.126430
C     -0.318255    0.005409    1.223285
C      1.166818    0.087355    0.854309
O      1.736761    1.290496    1.309269
O      1.963934    1.125026    2.598792
H      3.227975    0.387561   -0.917831
H      2.205597    0.165693   -2.467104
H     -0.145532   -1.052944   -1.941552
H     -0.550563    0.708847   -1.715692
H     -1.035372   -1.697918    0.101444
H     -2.955389   -0.567968   -1.017173
H     -2.520092    1.000320   -0.231565
H     -3.056849   -0.401467    0.775219
H     -0.470380   -0.630897    2.122115
H     -0.708418    1.026006    1.438589
H      1.724435   -0.803431    1.229216
20

C      2.339761    0.154111   -0.823615
C      1.145610   -0.027905   -0.247241
C      0.226961   -1.137451   -0.622801
C     -1.092194   -0.791604    0.077248
C     -2.093766   -0.156371   -0.898261
C     -0.725135    0.184685    1.207935
C      0.573194    0.879489    0.792451
O      1.435086    0.979853    1.903370
O      2.138560    2.084836    1.740340
H      2.971525    0.990584   -0.544191
H      2.693201   -0.532400   -1.586745
H      0.633180   -2.096449   -0.234206
H      0.114190   -1.206608   -1.727543
H     -1.551621   -1.712215    0.501301
H     -2.338113   -0.871665   -1.712260
H     -1.674062    0.770219   -1.346266
H     -3.035956    0.095388   -0.366502
H     -0.560027   -0.402061    2.139644
H     -1.528826    0.926323    1.411725
H      0.328431    1.869239    0.335617
20

C      2.015469   -1.833792   -0.099829
C      1.142845   -0.824397   -0.018496
C      0.266211   -0.588877    1.162042
C     -0.688790    0.521906    0.703159
C     -2.043623   -0.068398    0.272043
C      0.049751    1.236107   -0.455889
O     -0.823206    1.788172   -1.413441
O     -1.278870    2.912944   -0.894042
C      0.945833    0.179341   -1.099042
H      2.120472   -2.539419    0.718431
H      2.630507   -1.961224   -0.985259
H     -0.268834   -1.519546    1.454013
H      0.886881   -0.238803    2.015292
H     -0.867317    1.236949    1.536700
H     -2.744757    0.742021   -0.017893
H     -1.916214   -0.762981   -0.586052
H     -2.503699   -0.622854    1.117576
H      0.717278    2.023609   -0.027319
H      0.445254   -0.304309   -1.966295
H      1.914809    0.623551   -1.415700
20

C      2.731724    0.045506   -0.553398
C      1.437738   -0.031714   -0.226752
C      0.951608   -0.170083    1.173038
C     -0.566439   -0.001074    1.057664
O     -1.247503   -0.873608    1.927082
O     -1.142033   -0.350706    3.134481
C     -0.910925   -0.333300   -0.405735
C     -2.157795    0.407818   -0.898862
C      0.335417    0.012966   -1.224882
H      3.497753    0.007649    0.214902
H      3.033529    0.147105   -1.591238
H      1.385230    0.618657    1.825697
H      1.219816   -1.177507    1.560009
H     -0.832838    1.064428    1.264870
H     -1.092510   -1.429263   -0.494681
H     -2.368005    0.131881   -1.954026
H     -3.034960    0.124690   -0.279185
H     -2.014803    1.508087   -0.837436
H      0.496018   -0.736181   -2.030751
H      0.278979    1.034649   -1.660798
20

C      2.602718   -0.498930   -0.622837
C      1.341324   -0.106819   -0.417229
C      0.977367    1.219765    0.144512
C     -0.539625    1.276217    0.001163
C     -1.033927   -0.187007   -0.124472
C     -1.378759   -0.775075    1.264030
O     -2.139041   -0.296231   -1.000963
O     -3.105883    0.466112   -0.520773
C      0.156819   -0.951938   -0.731133
H      3.431554    0.157562   -0.376712
H      2.814895   -1.479074   -1.038525
H      1.274010    1.268702    1.214590
H      1.459285    2.043270   -0.426221
H     -0.788065    1.833597   -0.929868
H     -1.002692    1.810523    0.859661
H     -1.743907   -1.818891    1.156940
H     -2.171850   -0.178333    1.762491
H     -0.483811   -0.777168    1.923260
H      0.059553   -1.034005   -1.836132
H      0.270036   -1.972276   -0.301780
20

C     -2.592960    0.063387    1.169260
C     -1.472915   -0.111556    0.460759
C     -1.452950   -0.678148   -0.914868
C     -0.007684   -0.501985   -1.368655
C      0.828691   -0.336317   -0.089880
C      2.072746    0.534052   -0.314857
O      2.826139    0.593712    0.867804
O      3.868980    1.353157    0.592344
C     -0.119198    0.242630    0.965824
H     -2.552955    0.483076    2.169658
H     -3.557286   -0.211904    0.753547
H     -2.147382   -0.126152   -1.585115
H     -1.726873   -1.754897   -0.881165
H      0.062596    0.410794   -2.002028
H      0.335477   -1.377087   -1.962308
H      1.154842   -1.348335    0.243171
H      2.683502    0.079476   -1.128150
H      1.763276    1.558583   -0.626049
H      0.069621   -0.221550    1.958421
H     -0.035669    1.349063    1.041380
20

C      2.661931    0.182189    0.254195
C      1.376558   -0.108470    0.021817
C      0.894678   -1.486273   -0.265923
C     -0.623243   -1.371840   -0.203320
C     -0.954940    0.114401   -0.409641
C     -2.230670    0.526544    0.333154
C      0.281713    0.903703    0.056989
O      0.576275    1.952602   -0.834503
O     -0.196638    2.963729   -0.486091
H      3.417627   -0.596726    0.226185
H      2.966963    1.200293    0.475383
H      1.225768   -1.794390   -1.281267
H      1.266374   -2.208020    0.493907
H     -0.968371   -1.714751    0.798052
H     -1.104558   -2.002786   -0.981990
H     -1.110132    0.283769   -1.499873
H     -2.460652    1.594094    0.133581
H     -2.113722    0.383144    1.428856
H     -3.087181   -0.086648   -0.019212
H      0.182221    1.265437    1.108793
18

C      2.382471   -0.458931   -1.006347
C      1.181155   -0.227791   -0.467251
C      0.547524    1.117353   -0.439484
C     -0.740101    0.847859    0.256510
C     -1.632499    1.806223    0.530241
C     -0.929289   -0.588410    0.644827
O     -2.067303   -1.103504   -0.002638
O     -2.367455   -2.228847    0.618413
C      0.347602   -1.297757    0.164876
H      2.805150   -1.458856   -1.003297
H      2.951267    0.350041   -1.454290
H      1.168037    1.831801    0.143266
H      0.367064    1.489545   -1.470869
H     -1.445732    2.834576    0.236584
H     -2.555335    1.568798    1.050349
H     -1.024045   -0.648643    1.755375
H      0.120559   -2.089640   -0.582282
H      0.890931   -1.743818    1.026017
20

C     -2.215202   -0.072250   -0.737653
C     -1.430713    0.189270    0.550712
C     -0.785904   -1.063953    1.032892
C      0.533863   -0.993882    1.011683
C      1.028548    0.321068    0.510267
C      1.798267    0.151900   -0.806773
O      2.958783   -0.605745   -0.583545
O      3.554093   -0.706506   -1.756422
C     -0.253344    1.157257    0.330889
H     -3.027427   -0.805602   -0.545963
H     -1.548260   -0.472839   -1.531742
H     -2.675618    0.872397   -1.097163
H     -2.117114    0.580944    1.333125
H     -1.331012   -1.946856    1.351401
H      1.178161   -1.813879    1.312672
H      1.689016    0.787440    1.274347
H      2.077995    1.160451   -1.188346
H      1.147627   -0.351729   -1.559318
H     -0.283549    1.951772    1.109033
H     -0.298211    1.660743   -0.661003
20

C      2.231905    0.345309    0.571353
C      1.329920    0.007626   -0.618768
C      0.760378   -1.359320   -0.471546
C     -0.554308   -1.348213   -0.336648
C     -1.129240    0.037416   -0.360111
C     -1.708199    0.408006    1.020342
O     -2.096930    0.181236   -1.382399
O     -3.077030   -0.669473   -1.132060
C      0.094212    0.923359   -0.694918
H      1.667294    0.281441    1.526627
H      2.634403    1.374410    0.459451
H      3.087999   -0.361604    0.611870
H      1.918450    0.066530   -1.560604
H      1.353720   -2.268005   -0.452262
H     -1.138865   -2.250678   -0.186694
H     -0.915404    0.378789    1.798830
H     -2.508218   -0.302510    1.318854
H     -2.138636    1.431608    0.989204
H      0.179817    1.804633   -0.019743
H      0.008732    1.319439   -1.731686
20

C      2.510958   -0.133284    0.654702
C      1.258272    0.407989   -0.038068
C      0.867603   -0.449440   -1.189597
C     -0.407556   -0.794673   -1.149059
C     -1.121575   -0.237697    0.047676
C     -2.141461    0.836512   -0.381291
O     -1.735296   -1.259791    0.809745
O     -2.626789   -1.857231    0.038243
C      0.020451    0.395336    0.876941
H      2.354559   -1.180985    0.991926
H      2.755678    0.496862    1.535952
H      3.372848   -0.106893   -0.045712
H      1.450183    1.439862   -0.406109
H      1.531372   -0.716822   -2.005823
H     -0.885291   -1.377762   -1.930346
H     -2.671255    1.234739    0.510216
H     -2.894327    0.412681   -1.079570
H     -1.629433    1.678012   -0.896919
H     -0.219466    1.427355    1.217114
H      0.210526   -0.214768    1.789071
20

C      2.132381   -0.081396   -0.872956
C      1.382171   -0.172088    0.458488
C      0.722480    1.122714    0.776282
C     -0.590659    1.024138    0.781345
O     -1.417169    2.104430    1.087175
O     -2.746291    1.958552    1.163284
C     -1.073509   -0.346230    0.443571
C     -1.793828   -0.357453   -0.909719
C      0.219669   -1.182625    0.408062
H      2.933936    0.684932   -0.805850
H      1.441300    0.192511   -1.699170
H      2.603581   -1.059374   -1.107630
H      2.094134   -0.438435    1.270228
H      1.255000    2.041670    0.986254
H     -1.757367   -0.717206    1.238265
H     -2.710322    0.267009   -0.866007
H     -1.132549    0.032300   -1.713449
H     -2.096937   -1.394715   -1.166258
H      0.259713   -1.828104    1.313352
H      0.274266   -1.850630   -0.480829
20

C     -2.253776   -0.019452    0.779600
C     -1.288681    0.095758   -0.403487
C     -0.798162   -1.246870   -0.822537
C      0.519435   -1.301765   -0.898462
C      1.164435   -0.007698   -0.540739
C      2.235053   -0.211953    0.534356
C     -0.005002    0.881295   -0.052119
O     -0.010080    2.120141   -0.721814
O      0.934106    2.851313   -0.159371
H     -1.768013   -0.533898    1.637107
H     -3.155054   -0.595667    0.479770
H     -2.576391    0.993282    1.101883
H     -1.817094    0.562505   -1.264441
H     -1.444498   -2.077251   -1.089138
H      1.060066   -2.181914   -1.232244
H      1.633415    0.419496   -1.454776
H      3.044471   -0.865568    0.144706
H      1.798616   -0.683398    1.441633
H      2.680011    0.766006    0.815040
H      0.047142    1.035637    1.054127
20

C     -1.972462   -0.465811    0.705904
C     -1.267689    0.087178   -0.539830
C     -0.608779   -1.021386   -1.288104
C      0.711156   -0.932695   -1.266803
C      1.191693    0.248344   -0.493874
C      1.910954   -0.220423    0.778342
C     -0.103128    1.059650   -0.233123
O     -0.176903    1.582678    1.075387
O      0.551522    2.683693    1.078853
H     -2.743734   -1.207691    0.407207
H     -1.247562   -0.959872    1.387426
H     -2.481613    0.356618    1.251490
H     -2.019819    0.579683   -1.194800
H     -1.143442   -1.833828   -1.769968
H      1.364741   -1.666269   -1.728146
H      1.896864    0.839716   -1.117985
H      2.771010   -0.870552    0.509717
H      1.223489   -0.793315    1.436457
H      2.307269    0.651884    1.338776
H     -0.163567    1.882397   -0.987831
20

C     -0.543148    0.741677    2.481832
C     -0.528954   -0.274232    1.336763
C      0.856167   -0.762593    1.087415
C      1.299406   -0.435946   -0.113986
C      0.300173    0.347259   -0.896182
C      0.042527   -0.283908   -2.270529
O      1.206496   -0.208761   -3.051532
O      0.901936   -0.769024   -4.206316
C     -0.956519    0.350329   -0.004617
H      0.116948    1.605867    2.250484
H     -1.577580    1.112015    2.644426
H     -0.192402    0.261696    3.420392
H     -1.185318   -1.134689    1.592953
H      1.449179   -1.310788    1.812657
H      2.297945   -0.676918   -0.464832
H      0.675507    1.386854   -1.023433
H     -0.781113    0.275665   -2.770110
H     -0.267322   -1.347346   -2.142410
H     -1.771516   -0.264332   -0.448288
H     -1.342414    1.387174    0.114407
20

C     -2.337088    0.277612    0.652708
C     -1.269557    0.111810   -0.437081
C     -0.870357   -1.320725   -0.541043
C      0.386992   -1.523735   -0.187916
C      1.071832   -0.265589    0.220392
C      2.409183   -0.109643   -0.508455
C      0.062145    0.848229   -0.142904
O     -0.072227    1.776729    0.909526
O      0.982369    2.567805    0.846338
H     -1.946701   -0.048967    1.641086
H     -3.232855   -0.330563    0.403094
H     -2.651622    1.340738    0.718255
H     -1.688999    0.447495   -1.411067
H     -1.542267   -2.120667   -0.835783
H      0.843812   -2.507826   -0.152716
H      1.246316   -0.296999    1.318754
H      2.263073   -0.124051   -1.610343
H      3.092802   -0.938969   -0.227306
H      2.888321    0.849797   -0.221070
H      0.364830    1.367520   -1.085376
18

C     -2.335139    0.555245   -0.251118
C     -1.231093   -0.145649    0.543637
C     -0.834200   -1.432411   -0.117786
C      0.446891   -1.466064   -0.428823
C      1.076533   -0.224195   -0.031766
C      2.367626    0.056499   -0.205201
O      2.886504    1.279179    0.209580
O      4.184006    1.557225    0.033404
C      0.071656    0.682029    0.594705
H     -2.003673    0.755885   -1.293090
H     -3.245061   -0.081455   -0.279526
H     -2.596584    1.518549    0.236027
H     -1.591678   -0.359280    1.573771
H     -1.513633   -2.253066   -0.309091
H      0.940259   -2.303045   -0.906307
H      3.021563   -0.670557   -0.672495
H      0.356064    0.901000    1.646847
H     -0.000042    1.630111    0.017242
18

C      2.208893   -1.311404    0.430521
C      1.145138   -0.584306    0.096721
C     -0.126427   -1.134001   -0.452225
C     -0.998711    0.125836   -0.666211
C     -2.302434    0.072328    0.133182
C     -0.139511    1.267636   -0.206432
C      1.044954    0.855173    0.209116
O      2.060456    1.684172    0.688534
O      1.896948    3.011970    0.765280
H      3.100505   -0.840326    0.824131
H      2.195117   -2.387267    0.311938
H      0.064750   -1.647475   -1.419469
H     -0.576419   -1.848816    0.271607
H     -1.229628    0.253776   -1.746538
H     -2.093731   -0.030795    1.220203
H     -2.913820   -0.792845   -0.200419
H     -2.888698    1.001049   -0.033952
H     -0.447383    2.305295   -0.225988
18

C      2.747236   -0.382482   -0.117362
C      1.465855   -0.024858   -0.122712
C      0.984549    1.317913    0.110718
C     -0.331600    1.333804    0.037135
C     -0.919313   -0.025248   -0.264336
C     -1.843403   -0.486041    0.880353
O     -1.596696   -0.028197   -1.506582
O     -2.578093    0.854031   -1.432493
C      0.323977   -0.947755   -0.370114
H      3.523214    0.348735    0.070855
H      3.029751   -1.411107   -0.301497
H      1.598365    2.185073    0.318533
H     -0.917801    2.232272    0.183195
H     -1.279549   -0.548860    1.836414
H     -2.264887   -1.487268    0.648111
H     -2.682928    0.226908    1.024368
H      0.416704   -1.396053   -1.383859
H      0.324620   -1.760867    0.389273
18

C     -2.712060   -0.363622   -0.414510
C     -1.476974    0.085078   -0.207720
C     -0.830415    1.114534   -0.994078
C      0.386094    1.325625   -0.530190
C      0.709704    0.452632    0.648172
C      1.960316   -0.399660    0.387358
O      1.789439   -1.187805   -0.763231
O      2.905448   -1.878489   -0.895142
C     -0.563211   -0.396373    0.865391
H     -3.317460    0.037851   -1.217332
H     -3.127110   -1.137221    0.218781
H     -1.266912    1.639793   -1.833986
H      1.063486    2.058448   -0.949370
H      0.887146    1.099163    1.535730
H      2.141455   -1.048588    1.274444
H      2.835338    0.278067    0.259724
H     -0.378497   -1.487077    0.751385
H     -1.005791   -0.192356    1.864573
18

C      2.545032    0.346366    0.646939
C      1.309742    0.389622    0.152458
C      0.643922    1.597958   -0.284288
C     -0.553818    1.301390   -0.747715
C     -0.854091   -0.167221   -0.675204
C     -2.131653   -0.405402    0.139657
C      0.433340   -0.797586   -0.067744
O      0.202304   -1.444480    1.162788
O     -0.080502   -2.701339    0.875520
H      2.986123   -0.598151    0.938705
H      3.124738    1.253348    0.763416
H      1.058280    2.597540   -0.251166
H     -1.235370    2.042254   -1.145810
H     -1.007146   -0.552111   -1.707288
H     -2.364191   -1.490182    0.177426
H     -2.019248   -0.017280    1.175098
H     -2.989243    0.111421   -0.341863
H      0.931782   -1.466148   -0.810930
20

C     -2.585155   -0.546116    0.324423
C     -1.386545    0.354296    0.008543
C     -0.835065    0.120130   -1.409199
C      0.636538    0.038519   -1.219321
C      0.977036    0.036835    0.061339
C      2.391291   -0.094005    0.544655
O      3.129686    1.024405    0.131064
O      4.355754    0.830753    0.577553
C     -0.204594    0.113039    0.963554
H     -2.303662   -1.618374    0.246177
H     -3.411665   -0.338180   -0.387859
H     -2.948365   -0.343692    1.354380
H     -1.707921    1.416850    0.097086
H     -1.089500    0.967148   -2.081802
H     -1.196731   -0.833217   -1.852506
H      1.348472   -0.049936   -2.034266
H      2.829674   -1.027255    0.123900
H      2.394059   -0.162886    1.656044
H     -0.092887    0.955961    1.679312
H     -0.300419   -0.844277    1.521360
20

C      2.574589   -0.597958   -0.182353
C      1.149515   -0.182377    0.010407
C      0.721913    1.062283   -0.094685
O      1.563772    2.135241   -0.384152
O      1.078760    3.379052   -0.491006
C     -0.743600    1.188174    0.111737
C     -1.178661   -0.225836    0.537629
C     -2.417276   -0.708521   -0.224101
C      0.044234   -1.132313    0.301465
H      3.217475   -0.095323    0.570475
H      2.913833   -0.318040   -1.201862
H      2.675280   -1.697105   -0.061743
H     -0.960113    1.929135    0.911159
H     -1.220020    1.509569   -0.840179
H     -1.413520   -0.216393    1.626138
H     -2.222279   -0.731927   -1.317964
H     -2.694375   -1.729607    0.113991
H     -3.272002   -0.027595   -0.025363
H     -0.093579   -1.810525   -0.569077
H      0.276053   -1.729935    1.209486
20

C      2.745342    0.363946   -0.181112
C      1.269164    0.256824    0.050460
C      0.487380    1.302240    0.278503
C     -0.949449    0.916975    0.397837
O     -1.654470    1.357090   -0.739428
O     -1.915416    2.636382   -0.544144
C     -0.897460   -0.627233    0.472400
C     -2.009958   -1.341310   -0.306695
C      0.506884   -1.019783   -0.012989
H      2.942248    1.020190   -1.054829
H      3.177651   -0.638861   -0.381675
H      3.235431    0.792576    0.718140
H      0.846604    2.326198    0.318686
H     -1.389914    1.323015    1.339188
H     -0.987379   -0.923207    1.542766
H     -3.003203   -1.007780    0.061795
H     -1.935776   -1.127828   -1.394523
H     -1.929060   -2.438677   -0.155269
H      0.961781   -1.784097    0.653579
H      0.499600   -1.386660   -1.062690
20

C      2.741697    0.164697    0.187396
C      1.277502   -0.129882    0.069543
C      0.674724   -1.106325    0.727630
C     -0.762067   -1.217672    0.366340
C     -1.047780    0.042662   -0.492884
C     -1.834350    1.102315    0.313021
O     -1.726042   -0.281131   -1.691673
O     -2.875674   -0.842507   -1.360303
C      0.353549    0.593072   -0.846517
H      3.330148   -0.732800   -0.097295
H      2.983998    0.446225    1.233632
H      3.021220    1.003876   -0.483704
H      1.183854   -1.781499    1.408593
H     -0.906042   -2.149651   -0.222212
H     -1.387433   -1.262938    1.284190
H     -1.256004    1.421072    1.207300
H     -2.807923    0.695655    0.660020
H     -2.032723    1.993637   -0.319868
H      0.440423    1.692016   -0.698046
H      0.628922    0.349180   -1.896070
20

C     -2.891182    0.316532    0.085985
C     -1.438333   -0.044463    0.143981
C     -0.992280   -1.289347    0.076864
C      0.492039   -1.354712    0.102556
C      0.929996    0.092975    0.395299
C      2.074722    0.562181   -0.514041
O      3.214733   -0.222156   -0.279447
O      4.143491    0.240095   -1.094229
C     -0.336447    0.952111    0.230333
H     -3.016566    1.418652    0.134730
H     -3.332690   -0.052595   -0.863549
H     -3.426165   -0.143510    0.943168
H     -1.635872   -2.157591   -0.026778
H      0.833230   -2.044986    0.903587
H      0.855268   -1.715376   -0.884365
H      1.265835    0.157956    1.455483
H      2.298186    1.629199   -0.284522
H      1.762864    0.479665   -1.581004
H     -0.482552    1.618477    1.107815
H     -0.318274    1.556892   -0.702771
20

C      2.153588    0.639112    1.480181
C      1.042923    0.023303    0.683854
C      0.603175   -1.210683    0.883142
C     -0.537908   -1.548369   -0.005897
C     -0.593781   -0.375714   -0.998867
C     -2.034016    0.037446   -1.330271
C      0.278674    0.742256   -0.375838
O     -0.494333    1.750248    0.235210
O     -0.617280    2.720500   -0.651331
H      3.086628    0.054975    1.335949
H      1.885806    0.643748    2.557699
H      2.330904    1.684464    1.150679
H      1.000492   -1.879375    1.640628
H     -1.462430   -1.623539    0.607124
H     -0.351701   -2.510462   -0.529698
H     -0.107029   -0.702231   -1.946128
H     -2.030970    0.872118   -2.062494
H     -2.574968   -0.820147   -1.783791
H     -2.578542    0.354891   -0.415385
H      1.000766    1.147458   -1.125674
20

C     -2.173882    1.124435    0.481884
C     -1.338424    0.383562   -0.565014
C      0.082831    0.826123   -0.511554
C      0.907698   -0.168247   -0.219593
C      2.394178   -0.005809   -0.097526
O      2.682275    0.863454    0.964897
O      3.996899    0.967105    0.998090
C      0.196721   -1.461299   -0.027566
C     -1.275303   -1.132803   -0.298853
H     -2.167770    2.215136    0.270650
H     -1.768631    0.953121    1.502909
H     -3.225051    0.767446    0.446745
H     -1.748765    0.582451   -1.579316
H      0.408106    1.846904   -0.690105
H      2.789659    0.404241   -1.054351
H      2.857753   -1.001076    0.088126
H      0.575208   -2.219677   -0.746481
H      0.337469   -1.818938    1.015251
H     -1.904015   -1.438015    0.567018
H     -1.626958   -1.688115   -1.196118
20

C      2.539136    0.465371    0.271379
C      1.142109    0.008741   -0.011899
C      0.133242    0.823985   -0.261270
O      0.277979    2.210453   -0.325720
O     -0.752998    2.998940   -0.655803
C     -1.153018    0.097811   -0.470862
C     -2.127927    0.367707    0.680963
C     -0.725318   -1.381055   -0.517799
C      0.726012   -1.417611   -0.026419
H      2.546241    1.119993    1.168165
H      3.198949   -0.407257    0.460998
H      2.933980    1.029682   -0.599463
H     -1.613177    0.403016   -1.436166
H     -1.675847    0.081306    1.655475
H     -2.400636    1.443111    0.714195
H     -3.059170   -0.218818    0.531219
H     -0.768821   -1.744584   -1.568344
H     -1.371071   -2.038781    0.105196
H      1.367333   -2.007664   -0.716157
H      0.783002   -1.834346    1.002314
20

C      2.549143    0.837606    0.126128
C      1.203226    0.181071    0.083626
C      0.115642    0.710986    0.620899
C     -1.106297   -0.127371    0.385979
C     -2.084100    0.594356   -0.563087
O     -1.733788   -0.484880    1.602645
O     -2.107512    0.630175    2.205902
C     -0.538592   -1.401879   -0.282787
C      0.928751   -1.105926   -0.606957
H      2.496111    1.835297   -0.358237
H      3.297424    0.217824   -0.411193
H      2.874170    0.958106    1.180855
H      0.109249    1.668001    1.134930
H     -2.400116    1.571426   -0.139407
H     -1.603821    0.785597   -1.547439
H     -2.988555   -0.030380   -0.723450
H     -0.587233   -2.264207    0.419319
H     -1.092056   -1.687346   -1.204966
H      1.595494   -1.906943   -0.220819
H      1.072861   -0.981513   -1.701939
20

C     -2.435060    1.230601   -0.325976
C     -1.248153    0.367913   -0.023759
C     -0.098827    0.841906    0.430148
C      0.916217   -0.232260    0.630829
C      2.144876   -0.003135   -0.259573
O      2.798555    1.176803    0.129149
O      3.831524    1.300054   -0.681998
C      0.167517   -1.530621    0.268862
C     -1.222494   -1.106544   -0.216994
H     -2.167270    1.979729   -1.100481
H     -2.761488    1.756019    0.596009
H     -3.275972    0.610939   -0.702351
H      0.081118    1.894006    0.631077
H      1.225151   -0.253479    1.699323
H      1.826641    0.065535   -1.326122
H      2.835733   -0.869310   -0.143213
H      0.688903   -2.116618   -0.520335
H      0.071031   -2.173658    1.171309
H     -2.021288   -1.589112    0.386537
H     -1.356717   -1.348768   -1.293347
20

C      2.653735    0.604454    0.526255
C      1.254328    0.242301    0.132502
C      0.221894    1.056455    0.280880
C     -1.042464    0.460408   -0.233132
C     -2.135813    0.495274    0.837547
C     -0.651820   -0.983687   -0.631927
O     -1.029397   -1.261942   -1.959223
O     -2.326745   -1.503518   -1.932386
C      0.877949   -1.050371   -0.500754
H      3.348487   -0.228703    0.289739
H      2.695600    0.807489    1.616979
H      2.977981    1.509822   -0.028684
H      0.299003    2.058640    0.692579
H     -1.374353    1.042493   -1.121310
H     -2.373804    1.547468    1.102984
H     -1.807784   -0.040797    1.754530
H     -3.059038    0.014860    0.450094
H     -1.088121   -1.736305    0.069552
H      1.373323   -1.134697   -1.492719
H      1.187038   -1.899646    0.146491
20

C      2.655450    0.320259    0.618874
C      1.230492    0.266409    0.159999
C      0.222593    0.790330    0.841936
C     -1.092981    0.521737    0.192948
C     -1.905577   -0.451408    1.057880
C     -0.699758   -0.042141   -1.196620
O     -1.471554   -1.155361   -1.584389
O     -2.594555   -0.672800   -2.082953
C      0.777510   -0.435916   -1.071677
H      2.747952   -0.160662    1.615356
H      2.986633    1.377589    0.689055
H      3.311932   -0.214505   -0.099303
H      0.339474    1.308115    1.789478
H     -1.655430    1.473935    0.077995
H     -2.903882   -0.625574    0.604808
H     -2.061834   -0.020474    2.070047
H     -1.377316   -1.424166    1.160611
H     -0.764879    0.776113   -1.955373
H      1.360353   -0.098654   -1.956027
H      0.895378   -1.532824   -0.932647
20

C      2.305520    0.554907   -1.021962
C      1.023299    0.129948   -0.371541
C      0.131916   -0.647793   -0.966094
C     -1.069891   -0.881693   -0.118534
C     -2.323855   -0.324104   -0.796660
C     -0.748734   -0.158938    1.203443
C      0.589368    0.570448    0.984213
O      1.546954    0.179471    1.936949
O      1.265363    0.850801    3.037804
H      2.926599   -0.337982   -1.244684
H      2.875358    1.229575   -0.349053
H      2.086500    1.094964   -1.967052
H      0.258873   -1.055838   -1.964635
H     -1.193334   -1.973234    0.054924
H     -2.214681    0.764717   -0.993219
H     -2.499772   -0.848015   -1.760437
H     -3.208420   -0.485610   -0.144666
H     -0.659401   -0.908004    2.021430
H     -1.539090    0.569399    1.491111
H      0.447429    1.676980    0.968665
20

C      2.251620   -1.016055   -0.799733
C      1.003276   -0.477655   -0.168322
C     -0.100387   -1.193339   -0.016211
C     -1.196262   -0.412180    0.621258
C     -2.372911   -0.252130   -0.344832
C     -0.541967    0.937069    0.972901
C      0.859268    0.917120    0.335819
O      0.936001    1.810754   -0.747441
O      1.140954    3.005726   -0.225867
H      3.040382   -0.234976   -0.822659
H      2.623718   -1.883438   -0.215056
H      2.036862   -1.339146   -1.840034
H     -0.197380   -2.227266   -0.334355
H     -1.537370   -0.932142    1.543195
H     -2.789243   -1.248634   -0.605504
H     -2.050153    0.259029   -1.277943
H     -3.175770    0.347080    0.134735
H     -0.442077    1.022182    2.077455
H     -1.142235    1.804488    0.618123
H      1.653673    1.113513    1.094468
18

C      2.726991   -0.479913    0.460793
C      1.461010   -0.170144    0.194405
C      0.342952   -1.076495    0.335355
C     -0.770331   -0.455855   -0.012885
C     -2.107345   -1.128779   -0.023161
C     -0.533300    0.973738   -0.420746
O     -1.180564    1.850028    0.472541
O     -2.363744    2.116848   -0.047968
C      0.993589    1.151866   -0.306184
H      3.511000    0.253857    0.324067
H      2.989755   -1.467868    0.817353
H      0.403077   -2.109325    0.656392
H     -2.888315   -0.443112   -0.410984
H     -2.070995   -2.025954   -0.676425
H     -2.379054   -1.437542    1.008051
H     -0.844072    1.129376   -1.482168
H      1.442643    1.363728   -1.300985
H      1.266703    1.955546    0.412550
18

C     -2.060462   -1.478538   -0.665870
C     -1.031851   -0.694788   -0.350408
C      0.214851   -1.164498    0.215949
C      1.031009   -0.140116    0.384152
C      2.410305   -0.269681    0.946307
C      0.423856    1.158618   -0.051740
C     -0.986817    0.782829   -0.553426
O     -1.984498    1.398371    0.223485
O     -2.079192    2.638954   -0.216666
H     -2.012418   -2.546762   -0.496103
H     -2.959096   -1.056521   -1.097309
H      0.451043   -2.192747    0.461402
H      2.902956    0.724352    0.990051
H      3.016400   -0.942037    0.303376
H      2.359612   -0.690019    1.972714
H      1.026353    1.602175   -0.873426
H      0.382954    1.862802    0.807612
H     -1.105003    1.007605   -1.640089
18

C     -2.386097   -0.060456    0.575122
C     -1.427286    0.349184   -0.541241
C     -0.934375   -0.842621   -1.303729
C      0.381559   -0.942979   -1.209411
C      0.874722    0.154732   -0.396371
C      2.298325    0.353149    0.015257
O      2.521994   -0.308583    1.230884
O      3.789042   -0.094324    1.528821
C     -0.146835    0.894007    0.010564
H     -1.907703   -0.794836    1.259453
H     -3.299501   -0.517603    0.138657
H     -2.686637    0.834102    1.160998
H     -1.902816    1.083721   -1.226032
H     -1.558268   -1.530738   -1.859231
H      0.980611   -1.720035   -1.665640
H      2.963484   -0.059451   -0.776572
H      2.502125    1.442923    0.123714
H     -0.062344    1.759808    0.655396
18

C     -2.674872    0.213807   -0.504436
C     -1.328820   -0.001371    0.106654
C     -0.303783    0.830487    0.000344
C      0.903903    0.247573    0.669193
C      2.062175    0.058587   -0.314015
O      2.525330    1.312583   -0.741509
O      3.514514    1.064847   -1.578366
C      0.367571   -1.070908    1.139017
C     -0.906722   -1.200591    0.807468
H     -2.960943    1.284856   -0.436777
H     -2.650487   -0.092294   -1.570994
H     -3.436141   -0.392056    0.030316
H     -0.338600    1.788262   -0.503674
H      1.211492    0.871605    1.536001
H      2.883071   -0.488936    0.203345
H      1.720411   -0.544323   -1.187877
H      0.934150   -1.819226    1.677878
H     -1.522248   -2.062901    1.027444
22

C     -2.594044    0.089681    0.695230
C     -1.812650    0.280909   -0.607898
C     -0.524737    1.085413   -0.437484
C      0.292535   -0.138357   -0.859063
C      1.221244   -0.687903    0.238536
C      2.466775    0.183034    0.402229
O      3.291237   -0.370425    1.393061
O      4.339003    0.426803    1.476088
C     -0.997363   -0.944720   -1.018478
H     -3.027337    1.060694    1.014560
H     -1.938192   -0.295309    1.505887
H     -3.421619   -0.631661    0.529805
H     -2.448247    0.666025   -1.436058
H     -0.338334    1.419142    0.607839
H     -0.447757    1.912450   -1.176571
H      0.810824    0.009444   -1.833242
H      1.538866   -1.714866   -0.045387
H      0.682659   -0.751646    1.210176
H      3.013191    0.223737   -0.567885
H      2.161007    1.213053    0.695110
H     -1.085226   -1.802521   -0.314118
H     -1.181835   -1.232976   -2.076456
22

C     -2.654819    0.295005   -0.159706
C     -1.431868   -0.615516   -0.000769
O     -0.906414   -0.943514   -1.267676
O     -1.650948   -1.924250   -1.744077
C     -0.358961    0.077520    0.870587
C      0.936572   -0.721723    1.029282
C      1.717907    0.423681    0.384577
C      2.413860    0.040093   -0.924442
C      0.419802    1.207581    0.189679
H     -3.062450    0.570024    0.836470
H     -2.383585    1.221690   -0.708559
H     -3.451238   -0.232263   -0.725981
H     -1.746438   -1.534542    0.549599
H     -0.760174    0.390931    1.861154
H      0.959372   -1.668739    0.445084
H      1.211787   -0.866432    2.096872
H      2.407427    0.920997    1.102609
H      1.711978   -0.455637   -1.628059
H      2.821841    0.951995   -1.408720
H      3.253618   -0.653290   -0.708681
H      0.403571    2.144838    0.787564
H      0.149161    1.371551   -0.876807
22

C     -1.553671   -1.300422    0.730597
C     -1.813467    0.062756    0.076596
C     -0.566708    0.862139   -0.411777
O     -0.939804    2.076303   -1.030114
O     -1.452906    2.848236   -0.089176
C      0.383446    0.089475   -1.339178
C      1.528772    0.307303   -0.349115
C      2.107495   -0.984774    0.233740
C      0.583694    1.050904    0.595294
H     -2.525984   -1.739608    1.038545
H     -1.082381   -2.012957    0.026187
H     -0.933180   -1.204551    1.642913
H     -2.370495    0.681215    0.812511
H     -2.487234   -0.094866   -0.793160
H      0.571598    0.615014   -2.301702
H      0.123255   -0.976055   -1.502534
H      2.319133    0.973119   -0.762218
H      2.653298   -1.537153   -0.559636
H      1.312919   -1.641440    0.643210
H      2.820388   -0.737078    1.047925
H      0.890041    2.112992    0.718135
H      0.431792    0.549446    1.572958
22

C     -2.778514   -0.557154   -0.205636
C     -1.737317    0.553559   -0.073387
C     -0.368361    0.016083    0.413957
O     -0.445629   -0.731724    1.609105
O     -0.845354    0.098989    2.554566
C      0.747223    1.073385    0.443348
C      1.511312    0.296559   -0.627742
C      2.860348   -0.246589   -0.147905
C      0.404849   -0.757004   -0.662771
H     -3.733385   -0.127185   -0.574656
H     -2.437147   -1.329043   -0.926916
H     -2.965388   -1.033830    0.779714
H     -2.114491    1.314319    0.643538
H     -1.621901    1.057288   -1.058470
H      0.421110    2.072063    0.077638
H      1.279156    1.127073    1.419402
H      1.592067    0.859901   -1.583946
H      3.281102   -0.928427   -0.916467
H      2.752788   -0.804217    0.807761
H      3.567033    0.595900    0.005150
H     -0.101917   -0.784589   -1.652556
H      0.732415   -1.765358   -0.323728
22

C     -2.734050   -0.166761   -0.554491
C     -1.365574   -0.841242   -0.613805
C     -0.251707    0.170626   -0.950023
C      1.134388   -0.472968   -1.033368
C      1.625910    0.421581    0.105207
C      2.083755   -0.369256    1.337988
C      0.235239    1.070073    0.199413
O     -0.424616    0.822191    1.418576
O     -0.069970    1.801340    2.228248
H     -2.972867    0.304625   -1.531579
H     -3.511989   -0.926009   -0.328269
H     -2.757038    0.609165    0.238642
H     -1.159627   -1.358034    0.348960
H     -1.394803   -1.615949   -1.410398
H     -0.478079    0.755733   -1.869980
H      1.645110   -0.243929   -1.994264
H      1.142697   -1.559327   -0.789451
H      2.398393    1.145498   -0.237084
H      3.019189   -0.917397    1.098875
H      2.290826    0.328974    2.175639
H      1.313610   -1.104013    1.657706
H      0.231205    2.145078   -0.100660
22

C     -2.590761    0.277784   -0.713778
C     -1.571492    0.275486    0.422101
C     -0.443809   -0.739155    0.163718
C      0.637458   -0.722143    1.245965
C      1.667839   -0.267810    0.211924
C      2.241603    1.124166    0.493098
C      0.588900   -0.276290   -0.874276
O      0.852129   -1.268995   -1.832952
O     -0.108334   -1.165821   -2.731033
H     -2.113994    0.598645   -1.663668
H     -3.024727   -0.736300   -0.845152
H     -3.411152    0.986653   -0.474432
H     -1.158199    1.300717    0.546224
H     -2.092935   -0.000378    1.364075
H     -0.824714   -1.769401   -0.020537
H      0.455099    0.017406    2.058063
H      0.856933   -1.741570    1.632076
H      2.464423   -1.028122    0.048195
H      1.432707    1.867115    0.663894
H      2.888806    1.084526    1.394309
H      2.855499    1.454206   -0.371068
H      0.398720    0.729281   -1.320864
22

C      2.872038    0.478372    0.005190
C      1.594545    0.512684    0.839563
C      0.531114   -0.444030    0.272822
C     -0.796399   -0.413402    1.040626
C     -1.513212    0.053266   -0.238192
C     -2.494886   -0.992228   -0.782618
O     -2.153425    1.316485   -0.139987
O     -1.289629    2.198069    0.331932
C     -0.173502    0.060756   -0.994141
H      3.626130    1.159521    0.452697
H      2.666949    0.811561   -1.034045
H      3.291140   -0.550167   -0.016039
H      1.841286    0.200092    1.877153
H      1.211883    1.555119    0.878580
H      0.910107   -1.484534    0.156413
H     -1.100090   -1.428326    1.380697
H     -0.821596    0.327979    1.869146
H     -2.014019   -1.990973   -0.868093
H     -3.369179   -1.075871   -0.102892
H     -2.853103   -0.683242   -1.787416
H      0.152388    1.071927   -1.321783
H     -0.118539   -0.683060   -1.819613
22

C      2.802635   -0.516708    0.527581
C      1.514580    0.204263    0.915602
C      0.682119    0.570832   -0.325575
C     -0.068823   -0.607942   -0.950676
C     -1.404458    0.061567   -0.612207
C     -2.252478   -0.758121    0.377711
O     -2.103105    0.406279   -1.788356
O     -3.066164    1.236037   -1.431043
C     -0.649090    1.241395    0.016671
H      3.418080    0.125407   -0.137921
H      2.573656   -1.470167    0.006573
H      3.389651   -0.745562    1.441856
H      0.927317   -0.438696    1.607771
H      1.781203    1.137274    1.457545
H      1.258582    1.155749   -1.077329
H      0.116235   -0.680830   -2.045169
H      0.094332   -1.576183   -0.426566
H     -3.107171   -0.153413    0.746910
H     -1.646181   -1.072533    1.254446
H     -2.646282   -1.665185   -0.127404
H     -0.783533    2.195010   -0.539715
H     -0.831105    1.351529    1.109296
22

C     -1.564229   -1.096223   -1.112532
C     -2.062695   -0.084048   -0.073538
C     -0.984386    0.678578    0.734280
C      0.077019   -0.169982    1.437521
C      1.169943    0.563474    0.656170
C      1.997712   -0.345988   -0.259849
O      2.858800    0.441258   -1.038685
O      3.543832   -0.404231   -1.784398
C      0.105203    1.388962   -0.071358
H     -0.979745   -1.911232   -0.642634
H     -2.442293   -1.562331   -1.607192
H     -0.961511   -0.608099   -1.903218
H     -2.696097    0.665143   -0.595365
H     -2.717409   -0.620195    0.646662
H     -1.464283    1.381822    1.451899
H      0.129410    0.049364    2.526465
H      0.021575   -1.258611    1.231464
H      1.807419    1.189861    1.319887
H      1.330245   -0.947394   -0.916457
H      2.591252   -1.038397    0.378990
H      0.173739    2.468930    0.184669
H      0.066498    1.219342   -1.166899
22

C     -3.020668    0.072226   -0.482561
C     -1.645455   -0.599921   -0.440124
C     -0.509566    0.297392   -0.929365
C      0.111548    0.268759    0.469339
C      1.495106   -0.402184    0.534726
C      2.585339    0.514477   -0.020084
O      3.827566   -0.128924    0.083337
O      4.712863    0.716666   -0.408096
C     -1.022891   -0.634740    0.955067
H     -3.336469    0.205946   -1.538502
H     -2.998649    1.066048    0.015021
H     -3.764747   -0.571081    0.032349
H     -1.640401   -1.597896   -0.932281
H      0.106138   -0.202295   -1.709431
H     -0.834013    1.320655   -1.221632
H      0.087021    1.264745    0.966246
H      1.491428   -1.359995   -0.031903
H      1.728893   -0.632823    1.596946
H      2.365386    0.745293   -1.087163
H      2.598007    1.462015    0.565903
H     -0.694286   -1.659192    1.238890
H     -1.642150   -0.145169    1.739200
22

C     -2.650826    0.816278    0.062982
C     -1.699284   -0.381719    0.048375
O     -2.252533   -1.368451   -0.794992
O     -2.133169   -2.526099   -0.171451
C     -0.317625    0.038091   -0.499959
C      0.497191    0.930937    0.441308
C      1.575726   -0.146939    0.529187
C      2.919770    0.279921   -0.067700
C      0.755596   -1.048481   -0.391757
H     -2.270098    1.614842    0.733811
H     -2.770647    1.230714   -0.961106
H     -3.647538    0.497276    0.435145
H     -1.594953   -0.731698    1.105896
H     -0.373015    0.458504   -1.529706
H      0.016174    1.109581    1.427995
H      0.831732    1.868673   -0.055198
H      1.675976   -0.565562    1.555343
H      3.383974    1.054551    0.578129
H      2.792341    0.694068   -1.091437
H      3.599756   -0.596354   -0.116593
H      1.241028   -1.258473   -1.370620
H      0.420423   -1.969662    0.132347
22

C     -2.779410   -0.673974   -0.510398
C     -1.867262    0.349353    0.161691
C     -0.483707   -0.251976    0.479262
C      0.464121    0.743521    1.151533
C      1.448355    0.595542   -0.008809
C      2.784132   -0.032173    0.398054
C      0.498507   -0.391230   -0.696720
O     -0.004050    0.125458   -1.903976
O      0.923191   -0.114402   -2.810891
H     -2.348258   -1.010989   -1.476007
H     -2.922605   -1.554565    0.151419
H     -3.770675   -0.214188   -0.707439
H     -1.774185    1.249803   -0.483967
H     -2.343637    0.667701    1.114193
H     -0.559147   -1.193154    1.069515
H      0.057227    1.776902    1.219588
H      0.850227    0.365677    2.124285
H      1.579968    1.546270   -0.572742
H      3.352466    0.680676    1.031676
H      2.629429   -0.974879    0.966495
H      3.381693   -0.254735   -0.510807
H      0.883623   -1.434639   -0.790074
22

C     -2.821170   -0.610331   -0.404114
C     -1.865967    0.121923    0.534475
C     -0.432346   -0.423081    0.410009
C      0.574783    0.324637    1.286415
C      1.330128    0.778630    0.037122
C      2.772123    0.257618   -0.020714
C      0.311264    0.042127   -0.847714
O      0.848193   -1.053721   -1.547929
O      1.277009   -0.573191   -2.699197
H     -2.516159   -0.464279   -1.461799
H     -2.830995   -1.696800   -0.172901
H     -3.848774   -0.210466   -0.273866
H     -1.893612    1.211439    0.311241
H     -2.216093   -0.023049    1.579338
H     -0.376361   -1.523689    0.572305
H      0.138530    1.182993    1.844113
H      1.152966   -0.365914    1.939788
H      1.278368    1.881269   -0.102561
H      3.377148    0.757301    0.764746
H      3.216651    0.494633   -1.009819
H      2.813964   -0.840660    0.144082
H     -0.289649    0.732613   -1.487139
22

C     -2.616350   -0.423365   -0.467114
C     -2.023380    0.694216    0.402254
C     -0.478464    0.776920    0.456766
C      0.228062   -0.475346    0.981457
C      0.950847   -0.617473   -0.360480
C      2.483993   -0.529779   -0.276122
O      2.889740    0.616798    0.427833
O      4.208403    0.585989    0.435975
C      0.265690    0.651003   -0.875825
H     -2.163990   -1.409319   -0.242656
H     -3.706556   -0.495152   -0.268929
H     -2.492710   -0.197185   -1.545441
H     -2.413435    1.666620    0.032219
H     -2.396755    0.566755    1.441250
H     -0.150028    1.681352    1.016610
H      0.902890   -0.245207    1.835056
H     -0.442707   -1.332141    1.200378
H      0.615251   -1.522041   -0.915308
H      2.890572   -0.505780   -1.312385
H      2.859132   -1.444880    0.235334
H      0.961722    1.501957   -1.044070
H     -0.371927    0.456060   -1.760920
20

C     -2.820574   -0.078695    0.071690
C     -1.419612   -0.379593   -0.468429
C     -0.487377    0.831308   -0.462406
C      0.416603    0.127645    0.550904
C      1.801203   -0.150937    0.025008
C      2.685763    0.840047   -0.120879
O      3.981516    0.617580   -0.594296
O      4.412218   -0.606146   -0.932406
C     -0.513213   -1.087690    0.538003
H     -2.770829    0.434458    1.056556
H     -3.385330   -1.027349    0.188859
H     -3.363487    0.572048   -0.645532
H     -1.441750   -0.893427   -1.455205
H     -0.946035    1.754321   -0.043430
H     -0.012263    0.994020   -1.455599
H      0.426560    0.636012    1.541041
H      2.086552   -1.167163   -0.216165
H      2.400748    1.853858    0.132160
H     -0.988500   -1.260310    1.529136
H     -0.062190   -2.009986    0.110082
20

C     -2.901124    0.284410    0.768426
C     -1.844970   -0.103589    0.046231
O     -2.005520   -0.880081   -1.108681
O     -3.212983   -1.268713   -1.542811
C     -0.451097    0.296033    0.473177
C      0.525445   -0.879309    0.537811
C      1.347045   -0.254444   -0.589714
C      2.765196    0.142408   -0.170063
C      0.373464    0.922417   -0.652425
H     -3.907634    0.010388    0.482152
H     -2.776405    0.884604    1.661048
H     -0.417578    0.911779    1.400984
H      1.059585   -0.925045    1.512854
H      0.084127   -1.856966    0.242429
H      1.330107   -0.868703   -1.517392
H      3.369040   -0.771764    0.009594
H      3.242370    0.729834   -0.982374
H      2.754178    0.754459    0.757842
H      0.821714    1.894908   -0.350033
H     -0.154959    0.977373   -1.629961
20

C      2.971295   -0.251131    0.283766
C      1.944805    0.510455   -0.105338
C      0.590922   -0.094615   -0.425402
O      0.645561   -1.069160   -1.443891
O      1.039567   -0.448412   -2.541037
C     -0.539154    0.926281   -0.633415
C     -1.256240    0.380357    0.600887
C     -2.611065   -0.262419    0.290184
C     -0.132250   -0.633477    0.814071
H      2.859372   -1.326007    0.389311
H      3.933047    0.202234    0.500385
H      2.096793    1.581076   -0.206229
H     -0.223954    1.983433   -0.492098
H     -1.102376    0.771066   -1.580678
H     -1.315546    1.127960    1.422962
H     -3.335635    0.523824   -0.008895
H     -2.996184   -0.774471    1.196887
H     -2.525117   -1.004537   -0.533031
H     -0.454433   -1.693224    0.703590
H      0.410592   -0.449233    1.767971
20

C      2.543221    1.139275   -0.011305
C      1.519021    0.572611   -0.655458
C      0.713763   -0.548108   -0.025047
O      1.500460   -1.662089    0.335410
O      1.994493   -2.154869   -0.785922
C     -0.559751   -0.935782   -0.793360
C     -1.411595   -0.460033    0.382937
C     -2.310149    0.733256    0.045179
C     -0.147434   -0.075355    1.151628
H      2.821390    0.815804    0.987195
H      3.109419    1.935016   -0.484201
H      1.274519    0.918923   -1.655350
H     -0.657280   -2.032477   -0.951148
H     -0.720708   -0.353914   -1.728214
H     -1.968609   -1.291566    0.869229
H     -1.730380    1.549005   -0.438935
H     -2.773575    1.124621    0.975059
H     -3.117009    0.407621   -0.644417
H     -0.067053    1.015137    1.362503
H     -0.012742   -0.697078    2.064217
20

C      2.882881    0.822234    0.372913
C      1.992401    0.177075   -0.384401
C      0.718106   -0.374200    0.214546
C     -0.142298   -1.155540   -0.781505
C     -1.278193   -0.150066   -0.592196
C     -2.534921   -0.759693    0.036243
C     -0.420946    0.643255    0.398168
O     -0.127260    1.921855   -0.113054
O      0.326111    2.627011    0.905528
H      3.798923    1.201086   -0.068446
H      2.705511    0.976485    1.433054
H      2.213330    0.029167   -1.437555
H      0.906207   -0.965681    1.138618
H     -0.380136   -2.179221   -0.415882
H      0.241184   -1.151383   -1.825579
H     -1.503333    0.410938   -1.527149
H     -3.016189   -1.449311   -0.688665
H     -2.289161   -1.324731    0.961506
H     -3.253188    0.048353    0.288808
H     -0.839031    0.652366    1.434143
20

C      3.006231    0.636519    0.309835
C      2.121066   -0.107660   -0.357666
C      0.776885   -0.437536    0.244811
C     -0.158407   -1.193878   -0.702028
C     -1.135852   -0.018306   -0.679135
C     -2.508355   -0.383616   -0.098526
C     -0.190208    0.750592    0.258200
O     -0.710080    0.960875    1.548555
O     -1.354537    2.110735    1.496473
H      3.972783    0.857802   -0.130975
H      2.773569    1.029387    1.295152
H      2.393036   -0.491348   -1.336767
H      0.867023   -0.945978    1.231442
H     -0.557970   -2.122701   -0.237582
H      0.256335   -1.366752   -1.719565
H     -1.220475    0.472226   -1.674254
H     -3.037074   -1.062927   -0.799726
H     -2.410904   -0.893666    0.884060
H     -3.118545    0.535086    0.027032
H      0.235478    1.671147   -0.210244
20

C      2.936461   -0.679662    0.840685
C      2.133076   -0.225704   -0.124386
C      0.848362    0.492112    0.211540
C     -0.010041    0.835860   -1.007896
C     -1.118897   -0.085058   -0.488149
C     -2.417657    0.670277   -0.151246
O     -1.319761   -1.170198   -1.367176
O     -2.048663   -2.058764   -0.716936
C     -0.249905   -0.438497    0.727624
H      2.677393   -0.552064    1.887529
H      3.861959   -1.185085    0.584718
H      2.430567   -0.362911   -1.159995
H      1.008383    1.373089    0.872678
H     -0.289920    1.912613   -1.025863
H      0.414810    0.494146   -1.978040
H     -3.116708    0.008825    0.402234
H     -2.908903    1.008048   -1.088066
H     -2.206688    1.558927    0.482128
H     -0.673931   -0.085826    1.693614
H      0.050061   -1.510127    0.754096
20

C      2.910714    0.167180    0.707199
C      1.922549    0.483982   -0.133019
C      0.871104   -0.531516   -0.509796
C     -0.134354   -0.803377    0.609899
C     -1.260834   -0.234323   -0.264867
C     -1.904751    1.054310    0.278843
O     -2.206490   -1.202888   -0.662127
O     -2.831293   -1.597577    0.432168
C     -0.250552    0.031496   -1.385661
H      2.973272   -0.824421    1.145468
H      3.664949    0.904509    0.962125
H      1.898292    1.483053   -0.558563
H      1.306227   -1.464442   -0.933043
H      0.048028   -0.211925    1.535391
H     -0.240751   -1.892423    0.808776
H     -2.469613    0.840564    1.210377
H     -2.603102    1.472374   -0.476503
H     -1.130014    1.817075    0.510203
H     -0.136756    1.108286   -1.643174
H     -0.426624   -0.599936   -2.284602
20

C     -3.388017    0.169280   -0.023352
C     -2.196137   -0.358244   -0.312774
C     -0.917523    0.248980    0.210649
C      0.001222   -0.775611    0.875616
C      1.045032   -0.546319   -0.217707
C      2.360781    0.044550    0.303653
O      3.186957    0.367573   -0.783033
O      4.295583    0.854746   -0.259813
C      0.125215    0.478617   -0.882839
H     -4.291962   -0.287351   -0.413103
H     -3.474123    1.054209    0.599759
H     -2.149953   -1.244604   -0.940070
H     -1.067229    1.152464    0.844514
H      0.327900   -0.448647    1.887761
H     -0.394582   -1.815714    0.863830
H      1.198922   -1.450775   -0.847958
H      2.858030   -0.718316    0.944559
H      2.157092    0.953940    0.915777
H      0.522296    1.517888   -0.869367
H     -0.199504    0.152426   -1.896101
20

C     -1.866189   -0.084462    1.508063
C     -1.652212   -0.363652    0.017543
C     -0.831547    0.711769   -0.693504
C      0.266706   -0.314807   -0.975158
C      1.573104    0.010434   -0.297418
C      2.347729    0.999824   -0.752114
O      3.569222    1.323069   -0.155419
O      4.034234    0.658867    0.912254
C     -0.554638   -1.390246   -0.260460
H     -0.904640    0.146121    2.016223
H     -2.323677   -0.973410    1.990845
H     -2.553151    0.779196    1.629652
H     -2.600353   -0.598191   -0.515533
H     -0.512844    1.547940   -0.030559
H     -1.322933    1.062416   -1.627247
H      0.386498   -0.530037   -2.060606
H      1.894008   -0.576375    0.554038
H      2.028875    1.578284   -1.610470
H     -0.897303   -2.184264   -0.959467
H     -0.080890   -1.802475    0.658429
20

C     -2.009575   -1.110491    1.275605
C     -1.747331   -0.148600    0.388809
O     -2.535672    1.005387    0.434864
O     -2.569261    1.879258   -0.580327
C     -0.710459   -0.343436   -0.707843
C      0.148767    0.894089   -0.994249
C      1.411000    0.105137   -0.657811
C      2.192034    0.669589    0.533111
C      0.559778   -1.113755   -0.313728
H     -2.774543   -0.962289    2.027190
H     -1.502909   -2.065901    1.249501
H     -1.169387   -0.750357   -1.635936
H     -0.026955    1.744603   -0.298466
H      0.112952    1.192655   -2.064719
H      2.054522   -0.065298   -1.549512
H      2.653553    1.638621    0.249233
H      2.998452   -0.038387    0.817833
H      1.528282    0.830463    1.410333
H      0.627485   -1.392021    0.760467
H      0.759268   -1.969267   -0.995261
20

C      2.900497    0.227525   -0.149269
C      1.789727   -0.457591   -0.431724
C      0.690404   -0.609630    0.595404
C     -0.519377   -1.401269    0.091746
C     -1.410513   -0.173799    0.287213
C     -2.046738    0.322770   -1.017942
C     -0.199497    0.627582    0.792590
O      0.159047    1.703857   -0.042958
O     -0.528846    2.742902    0.389780
H      3.686410    0.319218   -0.891839
H      3.031916    0.701088    0.819084
H      1.699031   -0.926541   -1.407249
H      1.070450   -1.014933    1.560039
H     -0.793653   -2.227542    0.783625
H     -0.442958   -1.737706   -0.966416
H     -2.167270   -0.330616    1.087649
H     -1.284511    0.454137   -1.816127
H     -2.800713   -0.414452   -1.365376
H     -2.559124    1.291308   -0.840532
H     -0.274282    0.903693    1.871396
20

C     -2.906358    0.090155    0.735563
C     -1.951569   -0.325922   -0.099932
C     -0.895910    0.627193   -0.605673
C      0.150428    0.985086    0.450448
C      1.234079    0.320632   -0.399725
C      1.880435   -0.901364    0.264822
O      2.698452   -0.476187    1.322110
O      3.223556   -1.572666    1.834101
C      0.187789   -0.040874   -1.454216
H     -2.937825    1.120462    1.077249
H     -3.664245   -0.603927    1.083944
H     -1.958013   -1.361672   -0.427072
H     -1.327904    1.523406   -1.104613
H     -0.013913    0.494370    1.436478
H      0.300110    2.083740    0.532927
H      1.983341    1.049909   -0.781379
H      2.492870   -1.432789   -0.498374
H      1.092302   -1.593951    0.642409
H      0.358834    0.499807   -2.410738
H      0.053543   -1.136315   -1.598329
18

C      3.248289    0.017683    0.892258
C      2.191588    0.003845    0.311991
C      0.895253   -0.012736   -0.399737
O      1.035495   -0.037957   -1.802326
O      1.600919    1.104478   -2.148733
C     -0.112727    1.031584    0.098951
C     -1.030948   -0.091694    0.581386
C     -2.377138   -0.140425   -0.147089
C     -0.027435   -1.133803    0.085222
H      4.175718    0.029851    1.401726
H     -0.550965    1.644811   -0.719867
H      0.266262    1.649201    0.943614
H     -1.142463   -0.102752    1.688485
H     -2.919949   -1.066422    0.136631
H     -2.238597   -0.128107   -1.250015
H     -2.991251    0.736228    0.147801
H     -0.412852   -1.768722   -0.743977
H      0.390800   -1.735062    0.923680
18

C      2.692970   -1.278038   -0.468251
C      1.887748   -0.423401   -0.195031
C      0.898958    0.624254    0.139587
O      1.492384    1.862925    0.457099
O      2.083072    2.294403   -0.642787
C     -0.079319    0.180232    1.230031
C     -1.235629    0.286531    0.234528
C     -1.913866   -1.054057   -0.062388
C     -0.262999    0.734423   -0.856802
H      3.399546   -2.028376   -0.708134
H      0.095617   -0.853730    1.606012
H     -0.175020    0.922017    2.053604
H     -1.962576    1.082669    0.510083
H     -2.475582   -1.392900    0.833299
H     -1.166959   -1.831363   -0.334100
H     -2.627321   -0.931329   -0.904123
H     -0.463303    1.779694   -1.179858
H     -0.187721    0.026045   -1.712770
18

C      3.279274   -0.516099   -0.865791
C      2.268792   -0.373298   -0.223833
C      1.033156   -0.199505    0.562986
C     -0.044857   -1.223106    0.207024
C     -0.964650   -0.094083   -0.260597
C     -2.236135    0.048207    0.580228
C      0.114794    0.936777    0.090252
O      0.599830    1.599637   -1.052157
O     -0.266579    2.561961   -1.303393
H      4.166020   -0.641365   -1.429566
H      1.233934   -0.157980    1.655918
H     -0.417264   -1.767108    1.103366
H      0.232705   -1.904683   -0.628339
H     -1.180317   -0.151368   -1.351209
H     -2.771751    0.976054    0.288905
H     -2.902925   -0.820196    0.396095
H     -1.998265    0.095856    1.665066
H     -0.145762    1.630299    0.925058
18

C      3.376206    0.322013   -0.436024
C      2.279510    0.080558    0.002556
C      0.940483   -0.213985    0.538934
C      0.140136   -1.167887   -0.347672
C     -0.875506   -0.058670   -0.626406
C     -2.291351   -0.390235   -0.137021
C     -0.069035    0.904020    0.258239
O     -0.759742    1.293690    1.419603
O      0.035652    2.141702    2.042529
H      4.338755    0.534061   -0.821245
H      0.968356   -0.536999    1.603012
H     -0.273383   -2.023952    0.230324
H      0.673162   -1.487283   -1.271425
H     -0.866405    0.253821   -1.694460
H     -2.931235    0.514349   -0.207024
H     -2.728393   -1.183210   -0.779539
H     -2.283975   -0.749421    0.914733
H      0.326766    1.767427   -0.329103
18

C      3.331959   -0.130812    1.015327
C      2.327307   -0.287015    0.367482
C      1.100240   -0.477929   -0.424130
C     -0.041652   -1.093454    0.383681
C     -0.859904    0.190184    0.205816
C     -2.155386   -0.030042   -0.596709
O     -1.077295    0.819939    1.449449
O     -1.505314    2.041723    1.189292
C      0.294524    0.808522   -0.597149
H      4.213647    0.006456    1.584227
H      1.286324   -1.005905   -1.384860
H      0.216541   -1.299873    1.447368
H     -0.477331   -1.980745   -0.127115
H     -2.882106   -0.605439    0.014714
H     -1.951094   -0.593251   -1.532881
H     -2.609989    0.944846   -0.871405
H      0.039359    0.998217   -1.663147
H      0.750168    1.694578   -0.099949
18

C      2.961021   -0.762478    1.111700
C      2.165613   -0.268988    0.351984
C      1.193520    0.333613   -0.575731
C      0.127522   -0.655139   -1.046371
C     -0.950388    0.164477   -0.328688
C     -1.637929   -0.614824    0.807418
O     -1.860952    0.714881   -1.255026
O     -2.550598    1.637791   -0.609851
C      0.123667    1.158929    0.137186
H      3.658904   -1.195813    1.778803
H      1.680048    0.880527   -1.412724
H      0.255067   -1.686131   -0.644101
H      0.015277   -0.642915   -2.153166
H     -2.289767   -1.405246    0.379214
H     -2.259587    0.068373    1.423286
H     -0.885767   -1.092867    1.471681
H      0.240740    1.198806    1.244053
H      0.013610    2.167002   -0.319656
18

C      3.598154   -0.504518    0.479197
C      2.519539   -0.039527    0.207474
C      1.202342    0.528972   -0.124639
C      0.327665   -0.424479   -0.936908
C     -0.667440   -0.494561    0.222138
C     -2.050015    0.074219   -0.120252
O     -2.835402    0.115070    1.041342
O     -4.004245    0.599789    0.668509
C      0.211140    0.457532    1.035547
H      4.544801   -0.912921    0.717811
H      1.272247    1.543572   -0.574178
H     -0.078805    0.060251   -1.852235
H      0.798750   -1.412069   -1.142241
H     -0.719461   -1.512040    0.670469
H     -1.947935    1.097194   -0.551840
H     -2.525324   -0.590980   -0.876280
H      0.615528   -0.029023    1.951557
H     -0.261539    1.443520    1.241181
18

C      2.619846   -0.115990   -1.531334
C      1.931830   -0.101362   -0.541420
C      1.090365   -0.084213    0.670114
C      0.061283   -1.214876    0.683963
C     -1.073330   -0.188714    0.663029
C     -1.961180   -0.291168   -0.584205
C     -0.044901    0.952169    0.657757
O     -0.095251    1.735772   -0.512150
O      0.715334    2.754504   -0.299193
H      3.223332   -0.128630   -2.400498
H      1.694651   -0.044201    1.602460
H      0.086094   -1.787711    1.636761
H      0.092401   -1.872719   -0.214556
H     -1.670072   -0.207778    1.602159
H     -1.352621   -0.317666   -1.513964
H     -2.568539   -1.219024   -0.530858
H     -2.648783    0.579552   -0.625128
H     -0.100459    1.552056    1.597073
18

C      2.790955   -1.542300    0.284730
C      2.137474   -0.544588    0.108912
C      1.338630    0.673793   -0.105746
C      0.164336    0.455047   -1.058051
C     -0.812011    0.740145    0.084583
C     -1.692400   -0.458056    0.461211
O     -2.639798   -0.673935   -0.550528
O     -3.361053   -1.704803   -0.153998
C      0.364788    0.955704    1.037120
H      3.364199   -2.418309    0.439144
H      1.960912    1.554781   -0.375846
H      0.118630    1.236090   -1.848161
H      0.093685   -0.578788   -1.466830
H     -1.399055    1.671660   -0.078454
H     -2.208199   -0.226530    1.420536
H     -1.062846   -1.367949    0.599451
H      0.428755    2.009150    1.387307
H      0.412998    0.218889    1.871274
22

C      0.864609   -1.006083    1.159568
C      0.983174    0.259946    0.294235
C      2.308556    0.256386   -0.488094
O      3.392547    0.290684    0.403827
O      4.477593    0.266660   -0.346115
C     -0.206710    0.383217   -0.680769
C     -1.529889    0.624011    0.063400
C     -2.440959   -0.584107    0.228696
C     -2.769631    0.478845   -0.806773
H      1.734721   -1.092777    1.844032
H     -0.048388   -0.962709    1.789172
H      0.819398   -1.914505    0.521240
H      0.984433    1.147360    0.966448
H      2.345972    1.154429   -1.146649
H      2.361372   -0.656903   -1.125152
H     -0.042448    1.258991   -1.345551
H     -0.256356   -0.519148   -1.331101
H     -1.605444    1.417306    0.837782
H     -2.070849   -1.539356   -0.201110
H     -3.084362   -0.549648    1.132952
H     -2.600448    0.150770   -1.855043
H     -3.616890    1.136631   -0.519114
22

C     -2.118034    0.881500   -1.025324
C     -1.079597    0.458397    0.026188
C     -1.767732   -0.393632    1.106723
C      0.105528   -0.289344   -0.641783
O      0.662662    0.539808   -1.643519
O      0.896963   -0.224708   -2.694790
C      1.170944   -0.700238    0.409507
C      2.643159   -0.635505    0.016472
C      2.054446    0.420472    0.940568
H     -1.665020    1.572274   -1.767360
H     -2.518938   -0.007231   -1.558671
H     -2.961380    1.418713   -0.540974
H     -0.694327    1.382973    0.510742
H     -2.658288    0.136146    1.507542
H     -2.092707   -1.370556    0.688860
H     -1.083280   -0.572144    1.961502
H     -0.305854   -1.236331   -1.070695
H      0.931911   -1.498431    1.144168
H      2.904800   -0.242086   -0.986729
H      3.297123   -1.361874    0.543694
H      1.926803    1.416285    0.465210
H      2.350819    0.305513    2.004550
22

C     -1.824669    0.110997    1.145001
C     -1.428385   -0.664406   -0.118164
C     -1.923177    0.056440   -1.379742
C      0.087258   -0.956760   -0.168243
C      0.953766    0.314343   -0.211343
C      1.507149    0.802385    1.123018
C      2.412620    0.067561    0.147504
O      3.308781    0.931234   -0.491531
O      3.712191    0.275312   -1.560605
H     -2.930758    0.191973    1.209190
H     -1.463654   -0.420891    2.050912
H     -1.396942    1.135940    1.132902
H     -1.947194   -1.648041   -0.077913
H     -3.032858    0.108751   -1.373828
H     -1.608985   -0.498604   -2.289149
H     -1.526218    1.091846   -1.432195
H      0.308101   -1.554656   -1.078808
H      0.356300   -1.597185    0.701664
H      0.802640    1.079007   -1.002689
H      1.657954    1.901870    1.172315
H      1.214938    0.205767    2.013245
H      2.761146   -0.932883    0.488462
22

C     -1.469556    0.059926    1.435844
C     -1.404382   -0.394932   -0.029482
C     -2.593116    0.179501   -0.810082
C     -0.078015    0.025126   -0.694444
C      1.123888   -0.717260   -0.081001
C      1.962406    0.080913    0.912790
C      2.510885   -0.217175   -0.475048
O      2.507573    0.893347   -1.329575
O      3.700214    1.436660   -1.192964
H     -1.348421    1.162038    1.510415
H     -2.446126   -0.223994    1.882951
H     -0.672013   -0.431645    2.031204
H     -1.485838   -1.504539   -0.056849
H     -3.549783   -0.149648   -0.350933
H     -2.574784   -0.183346   -1.859954
H     -2.560017    1.290425   -0.813549
H      0.037289    1.130326   -0.630114
H     -0.114126   -0.242360   -1.772893
H      1.066356   -1.811573    0.102786
H      1.657769    1.137037    1.076599
H      2.421486   -0.532156    1.716292
H      3.308311   -0.986671   -0.571993
20

C     -1.627421   -1.462335    0.522248
C     -1.237960   -0.349853   -0.118616
C     -2.174333    0.829105   -0.177333
C      0.150789   -0.260436   -0.725789
O      0.080101    0.269861   -2.027655
O     -0.381514   -0.695146   -2.801995
C      1.011375    0.678646    0.133941
C      2.510775    0.425553    0.075540
C      1.720275    0.028246    1.313178
H     -2.612298   -1.525787    0.975646
H     -0.969601   -2.322008    0.605825
H     -2.434435    1.155352    0.851944
H     -1.708186    1.685803   -0.707542
H     -3.102653    0.544884   -0.716415
H      0.623951   -1.273155   -0.760661
H      0.717952    1.741289    0.275229
H      3.136827    1.331990    0.215398
H      2.842688   -0.435458   -0.543317
H      1.875690    0.701190    2.182654
H      1.577979   -1.067743    1.427722
20

C     -1.866375   -0.223441    1.243793
C     -1.572331   -0.068638   -0.055684
C     -2.573274    0.592947   -0.964972
C     -0.255963   -0.569526   -0.600501
C      0.887626    0.353919   -0.162363
C      1.676157   -0.094647    1.063525
C      2.275425   -0.246439   -0.326967
O      3.244923    0.717422   -0.626550
O      4.395096    0.159471   -0.307011
H     -2.811979    0.128597    1.645575
H     -1.168101   -0.705972    1.920535
H     -3.514599    0.003858   -0.979614
H     -2.791420    1.618728   -0.599361
H     -2.189879    0.669448   -2.003785
H     -0.279137   -0.579856   -1.710739
H     -0.095099   -1.621597   -0.274675
H      0.817618    1.451004   -0.329239
H      1.367833   -1.057763    1.522495
H      2.101445    0.737834    1.663462
H      2.352035   -1.265349   -0.768831
20

C     -1.722444   -1.083156    0.891536
C     -1.527446   -0.066493    0.038558
C     -2.624103    0.313067   -0.920421
C     -0.225011    0.697694    0.055897
C      0.898903   -0.152943   -0.558109
C      1.809417   -0.865733    0.436721
C      2.328429    0.334761   -0.342173
O      2.434279    1.500633    0.427849
O      3.674144    1.507441    0.873852
H     -2.656613   -1.637096    0.892178
H     -0.952400   -1.372186    1.600218
H     -3.529839    0.617084   -0.354226
H     -2.318453    1.156389   -1.574134
H     -2.873437   -0.554606   -1.567307
H     -0.316927    1.626982   -0.545083
H      0.000676    1.010011    1.099666
H      0.731646   -0.679490   -1.522373
H      2.208138   -1.836972    0.076197
H      1.615279   -0.669632    1.513233
H      3.045762    0.154244   -1.172986
20

C     -0.929652   -1.749596    0.681245
C      0.460221   -1.257079    0.355950
C      1.659889   -2.069288    0.768332
C      0.656196   -0.096881   -0.302548
C     -0.477838    0.776493   -0.768876
C     -1.014248    1.731231    0.290020
C     -0.137112    2.257388   -0.834218
O     -0.873433    2.965597   -1.789835
O     -0.107603    2.991027   -2.861621
H     -0.903083   -2.721817    1.215724
H     -1.449122   -1.014052    1.330620
H     -1.510271   -1.887213   -0.255156
H      1.363732   -2.996544    1.301510
H      2.304215   -1.469270    1.445354
H      2.245728   -2.356401   -0.130508
H      1.671080    0.217218   -0.535097
H     -1.214776    0.402906   -1.511958
H     -2.097408    1.956612    0.188929
H     -0.507525    1.685494    1.278254
H      0.861009    2.634176   -0.517030
22

C      2.293792   -0.529776    0.264851
C      0.862423   -0.306787   -0.243863
C     -0.071476   -1.432785    0.274478
C     -1.553585   -1.017705    0.357788
C     -1.901059    0.049395   -0.681364
C     -1.074326    1.334231   -0.475803
C      0.321456    1.089910    0.147814
O      1.195790    2.100023   -0.311132
O      1.869168    2.538661    0.736815
H      2.342385   -0.398286    1.367174
H      2.633241   -1.556653    0.010414
H      2.992738    0.186782   -0.215759
H      0.892752   -0.364064   -1.355855
H      0.023623   -2.309983   -0.402671
H      0.245281   -1.767101    1.287395
H     -1.771542   -0.616322    1.372237
H     -2.198480   -1.910049    0.205239
H     -2.984222    0.290908   -0.619393
H     -1.706608   -0.360276   -1.697258
H     -1.638613    2.031039    0.182163
H     -0.966906    1.835719   -1.463045
H      0.194170    1.113118    1.259778
22

C      2.210286   -0.614185   -0.201860
C      0.893079   -0.408737    0.566019
C     -0.143763   -1.473796    0.116228
C     -1.583414   -0.992578    0.317328
C     -1.877859    0.265934   -0.522321
C     -0.646097    1.174072   -0.719842
C      0.345542    1.049799    0.452259
O      1.403886    1.970002    0.298405
O      0.949295    3.144140    0.696657
H      2.535723   -1.674040   -0.127302
H      3.016297    0.014908    0.231799
H      2.083140   -0.353208   -1.274195
H      1.116710   -0.590845    1.641425
H      0.014527   -2.411537    0.692256
H     -0.010894   -1.720401   -0.961306
H     -1.744453   -0.770000    1.395221
H     -2.290549   -1.801569    0.032885
H     -2.685972    0.843182   -0.022350
H     -2.259163   -0.038414   -1.521450
H     -0.987040    2.226883   -0.823615
H     -0.129148    0.897491   -1.665070
H     -0.210132    1.262898    1.398827
22

C      2.455802    0.461998    0.163619
C      1.001497    0.209307   -0.249270
C      0.702865   -1.309650   -0.318920
C     -0.791389   -1.648613   -0.139961
C     -1.693492   -0.496334   -0.591693
C     -1.449008    0.780840    0.243741
O     -1.824422    1.897501   -0.530058
O     -2.126639    2.863031    0.318645
C      0.026305    0.919566    0.707514
H      2.677760    1.550144    0.135891
H      3.145747   -0.051179   -0.539812
H      2.643397    0.084482    1.191820
H      0.862951    0.643618   -1.265224
H      1.274762   -1.855575    0.463849
H      1.049101   -1.692554   -1.303998
H     -1.036919   -2.563582   -0.721338
H     -0.997377   -1.867053    0.931282
H     -2.758540   -0.801474   -0.499228
H     -1.498286   -0.293374   -1.668432
H     -2.092415    0.700198    1.153832
H      0.297852    1.994457    0.795466
H      0.130450    0.474245    1.722275
22

C      2.562335    0.164924    0.226217
C      1.057979    0.007619    0.471939
C      0.561128   -1.346827   -0.067993
C     -0.949152   -1.502160    0.145210
C     -1.718891   -0.343685   -0.500399
C     -1.234750    1.015209    0.041185
O     -1.894585    2.063873   -0.627736
O     -3.085659    2.176968   -0.069309
C      0.278862    1.166850   -0.180172
H      2.919338    1.129283    0.646527
H      2.787618    0.142404   -0.861795
H      3.118910   -0.657089    0.724854
H      0.888061    0.037315    1.571943
H      1.084383   -2.174351    0.458897
H      0.789309   -1.432359   -1.153877
H     -1.285871   -2.461237   -0.303973
H     -1.171530   -1.537857    1.234478
H     -1.586030   -0.378701   -1.604480
H     -2.801591   -0.468014   -0.282800
H     -1.424649    1.066967    1.141103
H      0.492872    1.199504   -1.272235
H      0.611915    2.131364    0.262418
22

C     -2.589021    0.083999   -0.441689
C     -1.171621   -0.321443   -0.023886
C     -0.235147   -0.352037   -1.246589
C      1.194697   -0.727211   -0.836451
C      1.738916    0.239574    0.232885
O      3.016349   -0.176288    0.654276
O      3.869453    0.236080   -0.265206
C      0.803513    0.263045    1.451618
C     -0.627147    0.641945    1.047700
H     -2.592225    1.103533   -0.883929
H     -2.986264   -0.633339   -1.191181
H     -3.264915    0.073288    0.439882
H     -1.224329   -1.345282    0.410612
H     -0.604843   -1.099902   -1.981631
H     -0.224853    0.642928   -1.745014
H      1.207962   -1.768609   -0.445078
H      1.845961   -0.692958   -1.736346
H      1.778379    1.274764   -0.185925
H      1.179911    1.004028    2.189889
H      0.797770   -0.735278    1.943068
H     -0.636367    1.686304    0.663366
H     -1.276180    0.602861    1.949628
22

C     -2.481567    0.356766   -0.584862
C     -1.164765   -0.236964   -0.073423
C     -0.154079   -0.384105   -1.226510
C      1.178889   -0.952276   -0.720776
C      1.773995   -0.086727    0.407933
O      2.130096    1.188386   -0.076469
O      3.290809    1.048584   -0.689906
C      0.758030    0.069997    1.551352
C     -0.578116    0.637199    1.051090
H     -2.317220    1.370624   -1.009274
H     -2.914498   -0.295983   -1.372647
H     -3.215617    0.430270    0.245731
H     -1.384543   -1.247632    0.338951
H     -0.565727   -1.071293   -1.997592
H      0.023643    0.602776   -1.708699
H      1.018080   -1.986990   -0.345313
H      1.895959   -1.014842   -1.567375
H      2.665445   -0.608849    0.830993
H      1.176093    0.747069    2.327590
H      0.581767   -0.919359    2.028685
H     -0.425616    1.677528    0.687103
H     -1.291058    0.675821    1.903420
20

C      2.405536   -0.566145   -0.279328
C      1.097135   -0.268041   -0.263213
C      0.096961   -1.181358   -0.935925
C     -1.177184   -1.303976   -0.093127
C     -1.728942    0.074779    0.289487
C     -0.681269    0.882076    1.068604
C      0.618397    1.069940    0.260268
O      0.397705    1.925686   -0.836865
O      0.435140    3.159592   -0.368418
H      3.139633    0.115025    0.140060
H      2.762040   -1.495022   -0.713954
H     -0.157312   -0.761683   -1.933214
H      0.519987   -2.198381   -1.090192
H     -1.946546   -1.859869   -0.671087
H     -0.957187   -1.885439    0.829404
H     -2.029998    0.628716   -0.626632
H     -2.632849   -0.057018    0.922334
H     -0.447292    0.354326    2.019705
H     -1.107019    1.872788    1.337155
H      1.393064    1.494003    0.944938
20

C      2.570830    0.322897   -0.329098
C      1.272057   -0.010380   -0.295568
C      0.827642   -1.317424    0.316734
C     -0.459484   -1.121849    1.125743
C     -1.534545   -0.397209    0.304061
C     -1.029081    0.979914   -0.172082
O     -2.015792    1.613127   -0.951948
O     -2.882948    2.140915   -0.107671
C      0.242213    0.824181   -1.021119
H      2.902214    1.230814   -0.823700
H      3.321639   -0.307729    0.137146
H      0.645394   -2.050737   -0.498370
H      1.610369   -1.735783    0.987082
H     -0.846465   -2.114220    1.442708
H     -0.235058   -0.534591    2.043497
H     -1.819381   -1.020504   -0.572350
H     -2.437927   -0.264256    0.937527
H     -0.765836    1.605027    0.716158
H     -0.006841    0.322162   -1.981489
H      0.640999    1.835647   -1.257258
20

O      4.033865   -0.577491   -0.056023
O      2.774131   -0.934545    0.104682
C      2.041348    0.261367    0.165986
C      0.546744   -0.050370    0.342900
C     -0.251226    1.247020    0.578217
C     -1.742449    1.021987    0.539035
C     -2.300115   -0.022386   -0.095918
C     -1.487029   -1.166671   -0.648058
C     -0.019852   -0.787514   -0.883828
H      2.191370    0.853467   -0.766437
H      2.389277    0.865983    1.034920
H      0.432302   -0.702190    1.239014
H      0.002914    1.997132   -0.202201
H      0.020274    1.674547    1.567391
H     -2.389614    1.792804    0.946443
H     -3.382619   -0.103488   -0.118539
H     -1.936409   -1.504766   -1.605967
H     -1.537445   -2.011834    0.071732
H      0.560715   -1.714997   -1.079689
H      0.053821   -0.138054   -1.784568
20

C     -2.171468   -0.398991   -0.234446
C     -0.750215    0.042669    0.179716
O     -0.778335    0.697278    1.437436
O     -1.543225    1.769004    1.325149
C     -0.125558    0.946160   -0.917188
C      1.342352    1.199130   -0.684949
C      2.122006    0.336754   -0.012719
C      1.567468   -0.844770    0.744741
C      0.137383   -1.213209    0.318546
H     -2.138618   -1.019959   -1.155727
H     -2.816929    0.481226   -0.440607
H     -2.639466   -0.995698    0.577603
H     -0.228255    0.454861   -1.909571
H     -0.656703    1.919429   -0.982301
H      1.802547    2.054566   -1.170142
H      3.180780    0.556643    0.084757
H      2.232358   -1.720788    0.588595
H      1.577841   -0.600698    1.828690
H     -0.294836   -1.905906    1.074032
H      0.180874   -1.757700   -0.651615
20

C     -1.946489   -1.075538   -0.450632
C     -0.495870   -0.575586   -0.438462
C      0.217131   -0.984111    0.861029
C      1.700557   -0.598709    0.799533
C      1.922645    0.797070    0.270210
C      1.002244    1.456263   -0.454528
C     -0.417044    0.957058   -0.626996
O     -1.251305    1.599834    0.310116
O     -1.500124    2.804761   -0.169432
H     -2.453937   -0.752245   -1.384406
H     -1.965473   -2.185585   -0.412283
H     -2.511039   -0.682102    0.421593
H      0.028227   -1.060727   -1.293549
H     -0.260114   -0.483316    1.732458
H      0.137525   -2.082999    1.011526
H      2.142015   -0.678062    1.815712
H      2.236863   -1.311722    0.137031
H      2.909078    1.236238    0.384163
H      1.251972    2.439030   -0.843282
H     -0.746863    1.180448   -1.669800
20

C     -2.130699   -0.791905   -0.482706
C     -0.786009   -0.531012    0.206009
C     -0.754877    0.880418    0.874445
C      0.481943    1.721254    0.507844
C      1.717413    0.871454    0.451179
C      1.682852   -0.306269   -0.174968
O      2.849091   -1.069575   -0.260382
O      2.875238   -2.240755   -0.910245
C      0.380547   -0.769205   -0.781641
H     -2.155438   -1.821441   -0.899623
H     -2.959579   -0.694506    0.250613
H     -2.292821   -0.065738   -1.308062
H     -0.683116   -1.288005    1.016591
H     -1.660976    1.470887    0.614141
H     -0.773071    0.749688    1.979039
H      0.619095    2.540209    1.246023
H      0.324147    2.182141   -0.491507
H      2.630576    1.214647    0.921643
H      0.208666   -0.202838   -1.723249
H      0.427018   -1.849447   -1.035143
20

C     -2.460095    0.321235   -0.300148
C     -0.958031    0.463828   -0.032805
C     -0.572487   -0.220227    1.290116
C      0.919087   -0.302247    1.481978
C      1.795071   -0.229519    0.469075
O      3.150989   -0.399309    0.755381
O      4.085380   -0.285241   -0.198153
C      1.358539    0.091920   -0.944911
C     -0.138569   -0.141389   -1.180660
H     -2.733598    0.855805   -1.234744
H     -3.039988    0.766216    0.536408
H     -2.742136   -0.748714   -0.403790
H     -0.724174    1.550033    0.043095
H     -1.013185    0.344348    2.139833
H     -0.978793   -1.254905    1.317289
H      1.286193   -0.529574    2.475476
H      1.931748   -0.532353   -1.663109
H      1.598512    1.157470   -1.150194
H     -0.335597   -1.234408   -1.253621
H     -0.428866    0.327031   -2.146517
20

C      2.332593   -0.381103    0.305693
C      0.984053    0.345581    0.367082
C      0.591004    0.866854   -1.035417
C     -0.832818    1.348738   -1.030353
C     -1.775036    0.593270   -0.454755
C     -1.384140   -0.728536    0.162612
O     -2.427809   -1.225116    0.965972
O     -3.316562   -1.751647    0.143486
C     -0.116328   -0.550851    1.025953
H      2.255954   -1.291146   -0.327386
H      3.110672    0.288507   -0.119318
H      2.651652   -0.679148    1.327276
H      1.124953    1.238456    1.017775
H      1.264582    1.696789   -1.340058
H      0.683873    0.050683   -1.785348
H     -1.085017    2.322523   -1.438698
H     -2.798115    0.953042   -0.396480
H     -1.134450   -1.448308   -0.653871
H     -0.409450   -0.087616    1.994617
H      0.280390   -1.560971    1.271219
20

C      2.302289   -0.391012   -0.064602
C      1.002632    0.365410    0.233885
C      0.339174    0.831771   -1.082852
C     -1.049530    1.339511   -0.815513
C     -1.863491    0.633557   -0.022174
C     -1.377611   -0.660248    0.586538
O     -1.364163   -1.677394   -0.387559
O     -2.619350   -2.050023   -0.558474
C      0.050924   -0.477780    1.146013
H      2.088091   -1.327186   -0.623682
H      2.984730    0.242235   -0.670983
H      2.819676   -0.648798    0.884144
H      1.283178    1.283556    0.798530
H      0.944888    1.635985   -1.553689
H      0.273862   -0.015641   -1.799976
H     -1.371196    2.295252   -1.217609
H     -2.850051    1.014652    0.222974
H     -2.044294   -0.944049    1.435175
H     -0.028172    0.033144    2.131411
H      0.478416   -1.482942    1.358441
20

C     -2.191476    0.090666   -0.159278
C     -0.762019   -0.003425    0.388804
C     -0.220062   -1.441458    0.216668
C      1.238486   -1.484282    0.575625
C      2.053096   -0.538790    0.095843
C      1.490521    0.521256   -0.810375
C      0.168316    1.094602   -0.248875
O      0.487131    2.072578    0.715199
O     -0.570132    2.856203    0.821884
H     -2.202713   -0.102041   -1.253572
H     -2.845149   -0.654269    0.342921
H     -2.609220    1.101867    0.031581
H     -0.823701    0.181518    1.485639
H     -0.783602   -2.146596    0.865258
H     -0.336408   -1.769423   -0.839761
H      1.614539   -2.234623    1.264203
H      3.098433   -0.515271    0.387748
H      1.295851    0.063079   -1.804898
H      2.237217    1.331823   -0.954577
H     -0.339108    1.576588   -1.120039
20

C     -2.074743    0.044431    0.953476
C     -0.573018   -0.134878    0.697626
C     -0.302832   -1.431310   -0.091988
C      1.126858   -1.533732   -0.563153
C      1.929829   -0.463483   -0.684902
C      1.547235    0.902473   -0.170944
C      0.022683    1.083111   -0.039414
O     -0.566979    1.206608   -1.315304
O     -0.408582    2.464145   -1.684919
H     -2.633293    0.128885   -0.003206
H     -2.469898   -0.824831    1.521230
H     -2.253145    0.961181    1.554856
H     -0.074902   -0.221924    1.690200
H     -0.531803   -2.308793    0.550267
H     -0.963018   -1.480464   -0.985090
H      1.481354   -2.495895   -0.920234
H      2.935702   -0.605144   -1.068396
H      1.965772    1.677686   -0.847480
H      2.018231    1.041373    0.826078
H     -0.175451    1.990561    0.581296
18

C     -2.432102    0.664480   -0.148378
C     -1.174101    0.210597   -0.062205
C     -0.904359   -1.281207   -0.099385
C      0.416376   -1.616452    0.545477
C      1.455942   -0.773594    0.471046
C      1.323114    0.531595   -0.277329
O      2.366811    1.408039    0.073900
O      3.429968    1.017009   -0.604639
C     -0.024898    1.194590    0.053057
H     -2.641632    1.729797   -0.126185
H     -3.267324   -0.023097   -0.242436
H     -1.705863   -1.832969    0.438327
H     -0.891750   -1.620137   -1.156884
H      0.520507   -2.548178    1.093205
H      2.384157   -1.021972    0.977482
H      1.331736    0.319017   -1.373752
H     -0.181271    2.042626   -0.649765
H     -0.005310    1.599856    1.088463
18

C     -2.012118   -0.959916   -0.664864
C     -0.830995   -0.526197   -0.198659
C      0.135374   -1.507269    0.436555
C      1.558307   -1.089546    0.174995
C      1.895799    0.206742    0.168078
C      0.852565    1.255169    0.442425
C     -0.461268    0.947371   -0.311039
O     -1.504466    1.729334    0.223436
O     -1.372498    2.936963   -0.293712
H     -2.712486   -0.273477   -1.131121
H     -2.293124   -2.005989   -0.588540
H     -0.013137   -2.533540    0.035386
H     -0.043307   -1.528247    1.532482
H      2.309270   -1.843227   -0.041577
H      2.913893    0.501783   -0.066825
H      1.240302    2.252464    0.143415
H      0.655163    1.274405    1.536680
H     -0.317276    1.163178   -1.397114
20

O      3.693170   -0.504737   -1.203247
O      2.736244   -0.879259   -0.375993
C      1.894451    0.235315   -0.232701
C      0.727945   -0.103958    0.711410
C     -0.075942    1.148679    0.995721
C     -1.295320    1.373366    0.477067
C     -2.063167    0.323461   -0.284198
C     -1.148519   -0.747376   -0.885214
C     -0.155077   -1.250722    0.165990
H      1.500965    0.553430   -1.224482
H      2.475065    1.081350    0.202695
H      1.165581   -0.443982    1.675884
H      0.394060    1.938345    1.574968
H     -1.795611    2.309582    0.705434
H     -2.640409    0.811184   -1.098284
H     -2.786237   -0.156075    0.410203
H     -1.767341   -1.597406   -1.245250
H     -0.604959   -0.331148   -1.760112
H     -0.724616   -1.700641    1.009345
H      0.469714   -2.059407   -0.270142
20

C      1.843686    0.141506    0.941698
C      1.009533    0.015323   -0.344510
O      1.925471   -0.149268   -1.411281
O      1.245257   -0.099568   -2.544094
C      0.224705    1.313276   -0.509321
C     -1.092379    1.413332   -0.262207
C     -1.959330    0.216640    0.029712
C     -1.159596   -0.949249    0.615636
C      0.077534   -1.229222   -0.243648
H      1.201121    0.330297    1.827363
H      2.561237    0.985890    0.851724
H      2.430613   -0.785422    1.118202
H      0.774811    2.218592   -0.750919
H     -1.573113    2.380488   -0.373777
H     -2.757421    0.509307    0.744722
H     -2.446034   -0.106081   -0.915812
H     -1.802063   -1.855768    0.642672
H     -0.862949   -0.717191    1.660433
H     -0.272081   -1.535748   -1.253474
H      0.630999   -2.097133    0.176882
20

C      1.809428   -0.647198   -0.844707
C      0.896786   -0.544658    0.384807
C     -0.383645   -1.388526    0.213101
C     -1.412695   -0.665680   -0.656718
C     -1.793652    0.672849   -0.021591
C     -0.596009    1.466768    0.428227
C      0.604115    0.910931    0.686554
O      1.649982    1.680257    1.210503
O      1.504571    2.981663    1.498440
H      2.769042   -0.121611   -0.651229
H      2.041912   -1.710678   -1.065699
H      1.332434   -0.189086   -1.736578
H      1.458097   -0.964914    1.248247
H     -0.143205   -2.377112   -0.235160
H     -0.829516   -1.581934    1.214071
H     -1.005281   -0.497542   -1.676561
H     -2.321960   -1.296999   -0.755843
H     -2.443203    0.489088    0.861244
H     -2.374644    1.272267   -0.754487
H     -0.762556    2.512115    0.653379
20

C     -2.162085    0.988995    0.365940
C     -0.947238    0.402092   -0.358744
C      0.306917    1.160463    0.019567
C      1.507260    0.567562    0.174337
O      2.655534    1.324885    0.431307
O      2.626125    2.663326    0.505025
C      1.662103   -0.932585    0.137511
C      0.510180   -1.632918   -0.588859
C     -0.827582   -1.105887   -0.074134
H     -2.290798    2.058854    0.094906
H     -3.084169    0.444644    0.069626
H     -2.036078    0.910659    1.467465
H     -1.101771    0.538689   -1.451902
H      0.242473    2.241069    0.049013
H      1.716903   -1.305058    1.183212
H      2.617690   -1.191329   -0.366806
H      0.572716   -2.728300   -0.411803
H      0.590317   -1.453759   -1.683910
H     -1.655269   -1.648611   -0.580665
H     -0.903228   -1.302793    1.018916
20

C     -2.127880    0.447970    0.669730
C     -1.276489   -0.027470   -0.513819
C     -0.431355    1.118259   -1.027455
C      0.895032    1.201340   -0.825394
C      1.708022    0.075673   -0.232255
O      2.732020    0.630568    0.557762
O      3.666287   -0.295858    0.668459
C      0.838423   -0.867368    0.618015
C     -0.428028   -1.263040   -0.146385
H     -2.789726    1.281557    0.350624
H     -1.488363    0.806098    1.503876
H     -2.771889   -0.378792    1.037957
H     -1.973733   -0.325877   -1.327076
H     -0.936474    1.952716   -1.505478
H      1.422997    2.070374   -1.207440
H      2.135446   -0.494527   -1.091355
H      1.416027   -1.785323    0.861108
H      0.566541   -0.375259    1.576740
H     -1.023397   -1.978868    0.461258
H     -0.133462   -1.792174   -1.079778
20

C     -2.543137    0.168596    0.220988
C     -1.151058    0.174103   -0.416656
C     -0.377163    1.400145    0.021120
C      0.951515    1.385523    0.226341
C      1.767391    0.113724    0.237520
O      3.019796    0.379895   -0.346496
O      3.842785   -0.558981    0.083118
C      1.061103   -1.023414   -0.523940
C     -0.400579   -1.129137   -0.086459
H     -3.106517    1.077611   -0.080497
H     -2.465839    0.145607    1.329531
H     -3.115637   -0.721024   -0.118327
H     -1.278525    0.234760   -1.520066
H     -0.893199    2.355667    0.057107
H      1.443139    2.313729    0.503234
H      1.884013   -0.179325    1.308197
H      1.575179   -1.986800   -0.316653
H      1.109404   -0.835283   -1.619648
H     -0.441724   -1.334797    1.006732
H     -0.880946   -1.980600   -0.616052
20

C      2.533483   -0.002490   -0.220720
C      1.042535   -0.347519   -0.275812
C      0.568711   -0.918509    1.038345
C     -0.744879   -1.065068    1.244703
C     -1.708247   -0.703964    0.147173
C     -1.343699    0.654693   -0.508618
O     -1.910981    1.710580    0.234900
O     -3.174155    1.804798   -0.138789
C      0.193546    0.894965   -0.625327
H      2.734360    0.747711    0.574351
H      3.128284   -0.916954   -0.010038
H      2.864977    0.410799   -1.197079
H      0.892462   -1.114556   -1.067938
H      1.268976   -1.150297    1.836181
H     -1.112756   -1.415599    2.204065
H     -1.663669   -1.500521   -0.627311
H     -2.744773   -0.688623    0.546674
H     -1.751167    0.648992   -1.549090
H      0.438119    1.224687   -1.659199
H      0.488874    1.726874    0.053531
20

C      2.471090   -0.132364   -0.580108
C      0.973422   -0.381750   -0.380422
C      0.693798   -0.933911    0.996185
C     -0.572542   -1.006847    1.420579
C     -1.679729   -0.549020    0.512206
C     -1.331247    0.812847   -0.137622
O     -2.176136    1.044363   -1.241656
O     -3.345849    1.414208   -0.752992
C      0.155376    0.912438   -0.603078
H      2.850377    0.598781    0.166085
H      3.033938   -1.083801   -0.468617
H      2.658242    0.265065   -1.600419
H      0.646294   -1.136712   -1.129712
H      1.502834   -1.224931    1.660559
H     -0.794355   -1.352685    2.425485
H     -1.824701   -1.313657   -0.282053
H     -2.625506   -0.467922    1.089649
H     -1.480328    1.607231    0.634196
H      0.204061    1.182799   -1.681232
H      0.640961    1.745868   -0.047032
20

C      2.228013    0.186133    0.488011
C      0.924726   -0.314411   -0.145727
C      0.237498   -1.284236    0.796364
C     -1.098625   -1.364510    0.911555
C     -2.030565   -0.374482    0.262785
C     -1.379980    0.340040   -0.925755
C      0.006844    0.869118   -0.541059
O      0.548913    1.544126   -1.655752
O      1.103296    2.654645   -1.205303
H      2.784551    0.828521   -0.226084
H      2.883152   -0.672454    0.749544
H      2.016009    0.768589    1.410442
H      1.187444   -0.881671   -1.066199
H      0.842026   -2.024930    1.312722
H     -1.523165   -2.110611    1.576463
H     -2.335548    0.375154    1.024353
H     -2.943370   -0.904459   -0.083242
H     -1.292090   -0.365227   -1.782131
H     -2.028908    1.185612   -1.241798
H     -0.130222    1.545053    0.340812
20

C      2.351078   -0.263276    0.186321
C      0.887442   -0.571890   -0.150845
C      0.145081   -1.045209    1.081565
C     -1.170744   -0.833559    1.255368
C     -1.981160    0.064750    0.352951
C     -1.302833    0.316033   -1.001061
C      0.191084    0.635555   -0.818959
O      0.352584    1.789153   -0.022607
O      0.148977    2.825420   -0.814832
H      2.887145    0.087925   -0.721094
H      2.858933   -1.180426    0.554401
H      2.419917    0.519424    0.971999
H      0.885210   -1.414464   -0.877780
H      0.664298   -1.680043    1.794323
H     -1.651941   -1.237641    2.140862
H     -2.137649    1.034353    0.872560
H     -2.977979   -0.394593    0.182329
H     -1.412288   -0.587333   -1.641157
H     -1.812658    1.156212   -1.519978
H      0.655503    0.779612   -1.824366
18

C      2.562588    0.118899   -0.817937
C      1.299608    0.128223   -0.386566
C      0.705620    1.377257    0.138977
C     -0.542260    1.401105    0.618585
C     -1.374080    0.149548    0.741316
O     -2.733727    0.499954    0.645598
O     -3.416052   -0.484625    1.200810
C     -1.006597   -0.856022   -0.367158
C      0.498526   -1.150998   -0.359694
H      3.019821   -0.795135   -1.176232
H      3.159246    1.022882   -0.818543
H      1.274684    2.299292    0.113224
H     -0.944304    2.337097    0.987292
H     -1.146362   -0.297692    1.738439
H     -1.563248   -1.805856   -0.214951
H     -1.296578   -0.442215   -1.358704
H      0.742939   -1.781323   -1.242905
H      0.760176   -1.720390    0.558449
18

C      2.612562   -0.232260    0.263548
C      1.313690    0.010287    0.075180
C      0.844705    1.394619   -0.154897
C     -0.445423    1.655674   -0.386053
C     -1.465277    0.556247   -0.514317
C     -1.092607   -0.659491    0.356402
O     -1.991910   -1.717652    0.124789
O     -3.080362   -1.445749    0.820846
C      0.328931   -1.133712    0.014544
H      2.973992   -1.243854    0.401055
H      3.334504    0.574989    0.281872
H      1.546610    2.219113   -0.108848
H     -0.759468    2.680790   -0.538107
H     -1.527342    0.249309   -1.580936
H     -2.458499    0.948507   -0.208127
H     -1.100486   -0.360561    1.433296
H      0.621268   -1.933231    0.730919
H      0.345113   -1.563025   -1.011166
18

C     -1.887617   -1.480500    0.475231
C     -0.761900   -0.803863    0.225925
C      0.499274   -1.550691    0.009197
C      1.612501   -0.928526   -0.387979
C      1.617000    0.537175   -0.717432
C      0.625735    1.298222    0.168647
C     -0.792893    0.704303    0.049369
O     -1.624672    1.280011    1.031217
O     -1.995465    2.459120    0.567011
H     -2.834854   -0.967761    0.585719
H     -1.882609   -2.559999    0.564740
H      0.533932   -2.618672    0.190727
H      2.522238   -1.500241   -0.522577
H      1.339717    0.668792   -1.785608
H      2.639166    0.946050   -0.569083
H      0.966050    1.246976    1.227027
H      0.611804    2.367019   -0.135905
H     -1.187408    0.902584   -0.976229
18

O      3.690185    0.247288   -0.517582
O      2.376268    0.287386   -0.627263
C      1.874898   -0.113053    0.622353
C      0.338873   -0.106418    0.611439
C     -0.204832    1.271151    0.296847
C     -1.445157    1.416408   -0.182523
C     -2.261696    0.235151   -0.520819
C     -1.712244   -0.983694   -0.554134
C     -0.227317   -1.159308   -0.369515
H      2.232693    0.580842    1.417475
H      2.230407   -1.140073    0.867738
H     -0.009179   -0.373741    1.634068
H      0.378097    2.152879    0.534958
H     -1.855977    2.407454   -0.326116
H     -3.314699    0.359001   -0.738472
H     -2.324938   -1.842896   -0.796235
H     -0.021623   -2.182240    0.012768
H      0.256242   -1.056135   -1.364986
18

C     -2.003654   -0.427556    0.667447
C     -0.770679   -0.119700   -0.195882
O     -1.232302    0.052541   -1.523824
O     -0.186005    0.285482   -2.296348
C      0.176026   -1.308875   -0.108640
C      1.503450   -1.149432   -0.121216
C      2.107550    0.192732   -0.158586
C      1.356951    1.287228   -0.013980
C     -0.103098    1.185699    0.340456
H     -1.711326   -0.627930    1.721444
H     -2.538551   -1.319893    0.275640
H     -2.709123    0.431216    0.651461
H     -0.227790   -2.314348   -0.130755
H      2.147772   -2.019190   -0.130799
H      3.172745    0.289824   -0.324627
H      1.824913    2.262972   -0.049303
H     -0.640349    2.075709   -0.052741
H     -0.166530    1.223520    1.450253
18

C     -2.079667   -0.442207   -0.341603
C     -0.575828   -0.221779   -0.545314
C      0.222943   -1.396843    0.062261
C      1.694895   -1.092189    0.102532
C      2.120835    0.153548    0.324742
C      1.162180    1.271059    0.404415
C     -0.121141    1.108575    0.033483
O     -1.030298    2.171586    0.102465
O     -0.685513    3.372326    0.589088
H     -2.659725    0.342067   -0.873076
H     -2.381100   -1.428411   -0.754997
H     -2.336499   -0.412045    0.739278
H     -0.378279   -0.196612   -1.639907
H     -0.117375   -1.588037    1.103614
H      0.054244   -2.319326   -0.534125
H      2.410587   -1.901757    0.034116
H      3.179118    0.349432    0.440089
H      1.520624    2.230611    0.752940
18

C     -1.854712   -0.401994   -0.711746
C     -1.085019   -0.199901    0.598513
C     -0.002341   -1.245778    0.726546
C      1.235437   -1.015145    0.273370
C      1.604063    0.309259   -0.280596
O      2.808609    0.493229   -0.961158
O      3.668065   -0.517884   -1.145788
C      0.772188    1.348081   -0.136148
C     -0.485050    1.221741    0.685238
H     -1.183459   -0.276197   -1.588452
H     -2.294937   -1.421762   -0.741837
H     -2.683169    0.334235   -0.785846
H     -1.800891   -0.330798    1.439302
H     -0.252746   -2.222184    1.122473
H      1.969912   -1.809100    0.312681
H      1.035738    2.312746   -0.551927
H     -0.225805    1.437350    1.744416
H     -1.225886    1.984101    0.360969
18

C     -2.349204   -0.366408    0.083156
C     -0.898168   -0.210751   -0.379656
C     -0.542029    1.247951   -0.550220
C      0.734480    1.641210   -0.505848
C      1.804385    0.683333   -0.169244
C      1.507164   -0.534519    0.316931
O      2.507251   -1.462416    0.623973
O      3.804992   -1.204243    0.408219
C      0.071632   -0.900195    0.605285
H     -2.600671   -1.442789    0.194087
H     -3.039379    0.075435   -0.667131
H     -2.505671    0.142291    1.058856
H     -0.794808   -0.702719   -1.372215
H     -1.310848    1.970760   -0.796287
H      0.989029    2.672018   -0.716344
H      2.832929    0.985172   -0.316725
H     -0.160070   -0.591395    1.648153
H     -0.051014   -2.002735    0.535009
18

C     -2.106279   -0.272665    0.420730
C     -0.592767   -0.085282    0.574852
C      0.116722   -1.419600    0.490140
C      1.409503   -1.480274    0.154604
C      2.135513   -0.263091   -0.250418
C      1.473630    0.872726   -0.494426
C     -0.039590    0.901108   -0.484857
O     -0.492902    2.201959   -0.190921
O     -0.419771    2.890170   -1.315496
H     -2.346643   -0.719879   -0.567884
H     -2.492275   -0.940910    1.220107
H     -2.626113    0.704851    0.509047
H     -0.395871    0.334576    1.586627
H     -0.396581   -2.328145    0.782072
H      1.930184   -2.428905    0.178879
H      3.213495   -0.291129   -0.343981
H      2.027205    1.758651   -0.780377
H     -0.397461    0.565839   -1.488699
18

C      1.807825   -0.607878   -0.012025
C      0.760064    0.397185   -0.494576
C     -0.194737   -0.274026   -1.457701
C     -1.374830   -0.759326   -1.044421
C     -1.787236   -0.667365    0.401236
C     -1.154403    0.513833    1.086273
C      0.027691    1.004134    0.690160
O      0.582908    2.069419    1.402434
O      1.770316    2.591724    1.067251
H      1.325056   -1.442555    0.541080
H      2.363581   -1.025884   -0.878640
H      2.538191   -0.108662    0.659707
H      1.278599    1.208204   -1.049651
H      0.098186   -0.396244   -2.496260
H     -2.022796   -1.268533   -1.751177
H     -2.892394   -0.580428    0.463414
H     -1.476170   -1.596123    0.924122
H     -1.649851    0.942523    1.948775
18

C     -2.052361   -0.135463   -0.621182
C     -1.118104    0.504025    0.406650
C     -0.577922   -0.549284    1.345448
C      0.632358   -1.095763    1.160854
C      1.509357   -0.688872    0.004323
C      1.198222    0.705675   -0.493050
O      2.153540    1.433754   -1.204366
O      3.358923    0.918885   -1.481922
C     -0.008267    1.251220   -0.292903
H     -2.480545    0.645193   -1.285925
H     -2.890922   -0.651412   -0.106159
H     -1.503288   -0.875332   -1.243352
H     -1.702435    1.234570    1.006666
H     -1.202924   -0.901779    2.160599
H      0.969366   -1.883343    1.827903
H      1.365140   -1.409109   -0.828204
H      2.568102   -0.740202    0.334429
H     -0.218240    2.237237   -0.689808
20

C      2.592013    0.406897   -0.384730
C      1.134565    0.138897   -0.126922
C      0.262934    1.170086   -0.153872
C     -1.210909    1.016123    0.143982
O     -1.931272    1.880261   -0.701599
O     -3.104236    2.077064   -0.128173
C     -1.686166   -0.433780   -0.056399
C     -0.731089   -1.403688    0.637232
C      0.669846   -1.295352    0.027419
H      2.999310    1.062853    0.413360
H      3.175231   -0.538124   -0.396549
H      2.716621    0.907336   -1.368472
H      0.642801    2.179689   -0.290577
H     -1.349773    1.302617    1.213803
H     -2.704860   -0.555464    0.371106
H     -1.736080   -0.671950   -1.142303
H     -1.105684   -2.443446    0.520107
H     -0.686355   -1.173231    1.724676
H      0.670603   -1.774676   -0.975448
H      1.382497   -1.852113    0.673360
20

C     -2.506253   -0.521063    0.905627
C     -1.098912   -0.252498    0.448084
C     -0.384759    0.717668    1.056557
C      1.048870    1.025781    0.701378
C      1.422223    0.551089   -0.713973
O      2.817565    0.605007   -0.892463
O      3.117313    1.868750   -1.129555
C      0.954654   -0.894532   -0.903420
C     -0.569440   -0.988571   -0.766362
H     -3.109268    0.409515    0.841505
H     -2.496707   -0.878867    1.956817
H     -2.989783   -1.295709    0.273588
H     -0.812855    1.241147    1.907449
H      1.208773    2.122477    0.777290
H      1.706970    0.530526    1.447910
H      0.901407    1.184541   -1.473005
H      1.437889   -1.550659   -0.145438
H      1.253319   -1.256224   -1.911384
H     -0.855304   -2.060900   -0.707155
H     -1.045703   -0.557479   -1.673449
20

C      2.639459    0.101086    0.065519
C      1.135606    0.130611    0.068316
C      0.502794    1.319469   -0.021519
C     -0.999136    1.449424   -0.078572
C     -1.720119    0.209060    0.461174
C     -1.100726   -1.076108   -0.110081
O     -1.190156   -1.093273   -1.516806
O     -2.426619   -1.450602   -1.810829
C      0.375810   -1.160404    0.304416
H      3.018631   -0.932016    0.214444
H      3.019733    0.479768   -0.906640
H      3.032177    0.739290    0.885392
H      1.087376    2.225033   -0.161082
H     -1.310207    2.337665    0.511437
H     -1.297539    1.620773   -1.135090
H     -1.645889    0.193051    1.571172
H     -2.798493    0.263450    0.198137
H     -1.621123   -1.961230    0.328000
H      0.437245   -1.405145    1.387162
H      0.861177   -1.989900   -0.254549
20

C      2.371121   -0.530388    0.365861
C      0.893197   -0.316389    0.175068
C      0.031569   -1.191728    0.737274
C     -1.459548   -1.144898    0.507886
C     -1.943378    0.217828    0.004045
C     -1.020439    0.734508   -1.100729
C      0.407008    0.921590   -0.565503
O      0.421760    2.030141    0.305663
O      1.640565    2.535578    0.262361
H      2.961969    0.251713   -0.154860
H      2.663826   -1.518314   -0.048539
H      2.619822   -0.500048    1.447814
H      0.422659   -2.049155    1.278793
H     -1.982710   -1.391316    1.456252
H     -1.720966   -1.924698   -0.239451
H     -1.967334    0.942679    0.847263
H     -2.977447    0.119180   -0.391017
H     -1.012559    0.011820   -1.946893
H     -1.406704    1.703419   -1.485469
H      1.057587    1.098477   -1.455819
18

C     -2.400725   -0.249443   -0.450482
C     -0.992181    0.103673   -0.071768
C     -0.658408    1.387229    0.135907
C      0.721125    1.756315    0.503176
C      1.708326    0.858311    0.427619
C      1.458495   -0.511261   -0.151565
O      2.406569   -1.408694    0.373577
O      2.442901   -2.440267   -0.449580
C      0.026682   -0.987325    0.180125
H     -2.531234   -1.349582   -0.523498
H     -3.106003    0.136016    0.316087
H     -2.648250    0.202111   -1.434293
H     -1.400051    2.170662    0.036322
H      0.931975    2.763262    0.839639
H      2.714264    1.147695    0.706275
H      1.566849   -0.419020   -1.258707
H     -0.212012   -1.884070   -0.431376
H     -0.028322   -1.275611    1.252543
18

C     -2.029313    1.152018   -0.060936
C     -0.632440    0.600113    0.028089
C      0.351771    1.395862    0.480508
C      1.749304    0.930398    0.519046
C      2.043350   -0.353198    0.303891
C      0.946954   -1.370975    0.157610
C     -0.298241   -0.773125   -0.536248
O     -1.393640   -1.641591   -0.360713
O     -1.249655   -2.612845   -1.243437
H     -2.423055    1.336002    0.960812
H     -2.023473    2.108744   -0.625575
H     -2.713727    0.453520   -0.584974
H      0.134290    2.407286    0.802699
H      2.542928    1.641110    0.710567
H      3.075759   -0.678968    0.321955
H      1.325712   -2.237607   -0.425298
H      0.668819   -1.730347    1.172296
H     -0.075341   -0.626395   -1.620290
18

C      2.588083   -0.231313   -0.242555
C      1.100386   -0.197361   -0.055303
C      0.437431    0.970341   -0.104070
C     -1.032867    1.042104    0.231480
O     -1.598261    2.148683   -0.428618
O     -2.721697    2.429774    0.205364
C     -1.749370   -0.258367   -0.192070
C     -0.968776   -1.470712    0.239588
C      0.367669   -1.446863    0.251135
H      3.087223    0.075952    0.700183
H      2.925734   -1.254601   -0.511437
H      2.893492    0.457759   -1.058919
H      0.974468    1.890910   -0.302812
H     -1.106684    1.158272    1.339174
H     -2.765854   -0.295648    0.254618
H     -1.852832   -0.282657   -1.298760
H     -1.493270   -2.387221    0.478790
H      0.915124   -2.349051    0.494211
18

C      2.544260   -0.556433    0.045618
C      1.091671   -0.213688   -0.101200
C      0.156497   -1.173276   -0.014495
C     -1.289667   -0.863949   -0.304901
C     -1.654532    0.575517    0.120595
O     -1.739590    0.664127    1.523325
O     -2.932766    0.208630    1.858113
C     -0.598305    1.541489   -0.353436
C      0.688438    1.178223   -0.405564
H      3.138322    0.350623    0.285922
H      2.689686   -1.291035    0.866442
H      2.920126   -0.991261   -0.904092
H      0.440282   -2.198445    0.192151
H     -1.456180   -0.971772   -1.398588
H     -1.941431   -1.600827    0.210999
H     -2.618876    0.869430   -0.357836
H     -0.876333    2.561960   -0.585861
H      1.438398    1.910686   -0.677193
22

C     -0.522671    1.777126   -0.037940
C     -0.528888    0.444275    0.734523
C     -1.796957   -0.351651    0.421833
C     -1.449326   -1.277357   -0.744127
C      0.073675   -1.280910   -0.875112
C      0.603721   -0.517946    0.337161
C      1.977641    0.125194    0.082194
O      2.402104    0.804993    1.234415
O      3.576875    1.324399    0.934022
H     -0.519062    1.602968   -1.135195
H      0.364828    2.382874    0.239755
H     -1.422852    2.372549    0.224714
H     -0.478001    0.667977    1.823465
H     -2.666131    0.298115    0.177708
H     -2.066408   -0.967541    1.308670
H     -1.828207   -2.304210   -0.547594
H     -1.911586   -0.900390   -1.682837
H      0.363192   -0.769301   -1.820062
H      0.472023   -2.318931   -0.894389
H      0.727024   -1.250933    1.168122
H      1.925581    0.821867   -0.785040
H      2.703426   -0.683169   -0.164286
22

C     -0.217016    2.110247    0.478306
C     -0.442626    0.595976    0.600204
C     -1.509254    0.075834   -0.363223
C     -1.168715   -1.393095   -0.628303
C      0.197180   -1.669622    0.006174
C      0.803819   -0.289661    0.336290
C      1.615456    0.199200   -0.884985
O      1.697407   -0.330488    1.438479
O      1.046633   -0.776297    2.498535
H      0.014863    2.406035   -0.566511
H      0.618010    2.422451    1.140449
H     -1.134805    2.650450    0.793859
H     -0.824319    0.407745    1.628182
H     -1.483617    0.638253   -1.323030
H     -2.525146    0.177037    0.077905
H     -1.942118   -2.058034   -0.184927
H     -1.126500   -1.581612   -1.723584
H      0.840557   -2.268471   -0.675817
H      0.040155   -2.274935    0.924538
H      0.973929    0.304429   -1.785865
H      2.097390    1.176081   -0.669255
H      2.428715   -0.521521   -1.117420
22

C     -0.468383    2.084974    0.236312
C     -0.371500    0.577687    0.509301
C     -1.691072   -0.143903    0.230403
C     -1.322018   -1.566981   -0.183774
C      0.202025   -1.633099   -0.224232
C      0.690298   -0.182675   -0.316553
C      2.110848   -0.070502    0.295174
O      0.652913    0.181471   -1.690077
O      1.350922    1.291467   -1.852902
H     -1.215271    2.539742    0.921229
H      0.511313    2.572779    0.421818
H     -0.788326    2.286432   -0.807896
H     -0.140508    0.447849    1.592188
H     -2.336167   -0.146789    1.136296
H     -2.246642    0.346440   -0.600061
H     -1.725838   -2.307842    0.540598
H     -1.737867   -1.789622   -1.191180
H      0.556021   -2.242324   -1.085103
H      0.558348   -2.116110    0.713740
H      2.439414    0.988380    0.353639
H      2.837298   -0.636127   -0.326437
H      2.134191   -0.481245    1.327517
22

C     -0.610395    1.439225   -1.116423
C      0.081803    0.926003    0.161811
C      1.492852    0.409715   -0.152846
O      2.312858    0.602805    0.977455
O      3.560345    0.493058    0.559043
C      1.328066   -1.091624   -0.439933
C     -0.050989   -1.505168    0.075126
C     -0.614353   -0.286483    0.800866
C     -2.148855   -0.246286    0.800551
H     -0.008069    2.252031   -1.575084
H     -1.606263    1.865310   -0.873761
H     -0.732296    0.622850   -1.860054
H      0.125623    1.767244    0.889832
H      1.917864    0.939113   -1.040327
H      2.123110   -1.689919    0.056881
H      1.390540   -1.274370   -1.535322
H     -0.696959   -1.787023   -0.786120
H      0.023030   -2.374440    0.764678
H     -0.284213   -0.339794    1.864001
H     -2.556641   -0.302720   -0.230842
H     -2.502828    0.689417    1.282767
H     -2.544230   -1.108944    1.377702
22

C     -1.115376    1.784349    0.184843
C     -0.679969    0.460198   -0.463342
C      0.828154    0.317856   -0.720273
C      1.715659    0.833159    0.428127
C      1.017392   -1.186016   -0.919097
C     -0.077219   -1.877468   -0.104462
C     -1.096130   -0.805405    0.304707
O     -1.023699   -0.611499    1.701526
O     -2.245051   -0.322853    2.111822
H     -2.223826    1.827479    0.238362
H     -0.763210    2.638158   -0.431959
H     -0.709319    1.893598    1.212068
H     -1.180972    0.417392   -1.458429
H      1.109659    0.862339   -1.649338
H      2.782655    0.615843    0.208684
H      1.618081    1.934206    0.529148
H      1.447329    0.350940    1.391578
H      0.878790   -1.429278   -1.996156
H      2.028727   -1.536837   -0.616581
H      0.368652   -2.366994    0.789754
H     -0.566551   -2.665243   -0.718784
H     -2.113777   -1.133921   -0.022198
22

C     -1.016379   -1.706956    0.247009
C     -0.673714   -0.548407   -0.708695
C      0.735211   -0.715538   -1.275606
C      1.674620   -0.002242   -0.299203
O      2.670427    0.690496   -1.013602
O      3.621790    0.974241   -0.143533
C      0.800918    0.962130    0.519261
C     -0.619916    0.829196   -0.030354
C     -1.699469    1.086264    1.030217
H     -0.330845   -1.720256    1.121234
H     -2.063217   -1.615760    0.604868
H     -0.932351   -2.677576   -0.286507
H     -1.419478   -0.540997   -1.534713
H      0.778049   -0.222471   -2.273051
H      1.021392   -1.782223   -1.409011
H      2.125111   -0.771651    0.373717
H      1.150299    2.014764    0.433020
H      0.840500    0.667840    1.591645
H     -0.749016    1.597321   -0.827532
H     -1.570018    0.421685    1.910451
H     -2.706723    0.920802    0.592666
H     -1.637191    2.139336    1.377719
22

C     -0.975233   -1.351547    1.007013
C     -0.603517   -0.853914   -0.402633
C      0.841723   -1.225434   -0.742221
C      1.710652   -0.017597   -0.366393
O      2.479500   -0.322636    0.773184
O      3.419774    0.601184    0.844732
C      0.746058    1.143476   -0.081075
C     -0.626552    0.674296   -0.553412
C     -1.782146    1.392043    0.157629
H     -0.338452   -0.872400    1.781043
H     -2.041939   -1.135275    1.225065
H     -0.842272   -2.452627    1.068503
H     -1.300081   -1.320565   -1.134489
H      1.175596   -2.156921   -0.232959
H      0.917332   -1.400772   -1.838805
H      2.367631    0.229107   -1.235150
H      1.057345    2.062677   -0.623805
H      0.724574    1.366052    1.009471
H     -0.710328    0.903433   -1.640917
H     -1.701465    1.298125    1.261223
H     -2.752863    0.967256   -0.174972
H     -1.765335    2.472039   -0.101032
22

C     -0.887447    1.843833    0.883193
C     -0.414654    0.400517    0.672301
C     -1.580658   -0.574518    0.575574
C     -1.042352   -1.767402   -0.200659
C      0.113721   -1.249974   -1.056499
C      0.356564    0.208436   -0.641134
C      1.851283    0.560024   -0.529430
O      2.480070   -0.236151    0.442288
O      3.743610    0.142354    0.455336
H     -0.013062    2.522749    0.965740
H     -1.525585    2.181524    0.038508
H     -1.473485    1.914420    1.824092
H      0.215899    0.100602    1.539551
H     -2.424084   -0.122259    0.006701
H     -1.941016   -0.876636    1.583103
H     -0.666958   -2.534551    0.512311
H     -1.837993   -2.221864   -0.830395
H     -0.152316   -1.300432   -2.135337
H      1.010713   -1.887078   -0.893278
H     -0.091395    0.861665   -1.425188
H      1.950101    1.636827   -0.264157
H      2.329044    0.397916   -1.522620
22

C      0.058690    2.086827   -0.333311
C      0.013986    0.563739   -0.521996
C      1.396180   -0.097263   -0.553160
O      2.242238    0.436188    0.443886
O      3.032220    1.309812   -0.152601
C      1.110485   -1.557073   -0.220785
C     -0.134105   -1.568401    0.666666
C     -0.741241   -0.159231    0.601573
C     -2.256526   -0.190989    0.365193
H      0.495505    2.358349    0.651218
H     -0.967661    2.505868   -0.391049
H      0.667075    2.549275   -1.139171
H     -0.480943    0.353095   -1.498347
H      1.844780   -0.033986   -1.575117
H      1.974589   -2.040091    0.286218
H      0.898322   -2.113902   -1.160801
H     -0.841694   -2.348788    0.307840
H      0.147183   -1.811442    1.715003
H     -0.545832    0.351153    1.572415
H     -2.496585   -0.697066   -0.594566
H     -2.661333    0.842349    0.337907
H     -2.755335   -0.738424    1.192985
22

C     -1.161271    1.747738   -0.053418
C     -0.372812    0.507216    0.387403
C      0.809421    0.212115   -0.545462
C      2.084052    0.970106   -0.155550
C      0.995263   -1.295532   -0.465197
C     -0.407669   -1.856983   -0.304772
C     -1.242425   -0.769300    0.381356
O     -1.547547   -1.172122    1.696268
O     -2.538374   -0.400273    2.102143
H     -1.562367    1.616755   -1.081416
H     -0.505647    2.643525   -0.035767
H     -2.009293    1.924875    0.641146
H      0.007209    0.683158    1.420257
H      0.543226    0.473673   -1.595514
H      2.912041    0.692940   -0.842081
H      1.915797    2.064466   -0.235965
H      2.387510    0.729455    0.885988
H      1.488817   -1.693217   -1.378710
H      1.600774   -1.569837    0.427925
H     -0.389098   -2.804341    0.277861
H     -0.830428   -2.073670   -1.311214
H     -2.177178   -0.630745   -0.215279
22

C     -0.975384   -2.004624   -0.289040
C     -0.308111   -0.786356    0.361199
C      1.223251   -0.825391    0.235585
C      1.662657    0.544861   -0.296703
O      2.752354    1.058840    0.430269
O      3.819432    0.407902    0.006111
C      0.453569    1.456270   -0.142372
C     -0.749492    0.534283   -0.285772
C     -2.008435    1.124133    0.360501
H     -0.624859   -2.935261    0.205728
H     -2.078008   -1.942306   -0.174336
H     -0.728734   -2.059379   -1.371224
H     -0.568624   -0.780308    1.444518
H      1.673595   -1.024334    1.233600
H      1.568312   -1.621503   -0.461060
H      1.902510    0.470516   -1.385228
H      0.446923    2.254334   -0.916704
H      0.463102    1.926581    0.867383
H     -0.942525    0.382922   -1.372846
H     -2.864050    0.428932    0.229142
H     -1.853048    1.300303    1.446604
H     -2.264435    2.089586   -0.125358
20

C     -1.583610    1.321473    0.246550
C     -0.956583    0.099276   -0.436237
C     -1.129326   -1.168576    0.404184
C      0.176236   -1.355312    1.173236
C      1.262309   -0.667049    0.354194
C      0.525668    0.255124   -0.557677
C      1.085798    1.104898   -1.438388
O      2.464560    1.271398   -1.625456
O      3.386708    0.560085   -0.963897
H     -1.424020    2.230695   -0.370883
H     -2.678060    1.170891    0.361245
H     -1.135791    1.485504    1.250705
H     -1.417734   -0.046677   -1.438586
H     -1.999698   -1.115447    1.094747
H     -1.275486   -2.038644   -0.273950
H      0.089941   -0.862298    2.166939
H      0.404439   -2.432862    1.323556
H      1.825845   -1.417830   -0.241229
H      1.945873   -0.104349    1.026090
H      0.432931    1.709701   -2.055143
20

C      0.622047    2.113538   -0.477090
C      0.363984    0.806536   -0.339082
C     -0.999720    0.214611   -0.489594
C     -1.881653    0.556562    0.717054
C     -0.730667   -1.289826   -0.590148
C      0.643991   -1.528795    0.036796
C      1.422833   -0.216857   -0.102680
O      2.126763    0.083079    1.077715
O      3.206251   -0.676132    1.064994
H     -0.179410    2.816533   -0.681454
H      1.637119    2.488251   -0.389617
H     -1.483001    0.578298   -1.423668
H     -1.414678    0.200282    1.660911
H     -2.031781    1.655102    0.782453
H     -2.877554    0.077709    0.605370
H     -1.513067   -1.903024   -0.091047
H     -0.692311   -1.581931   -1.663161
H      0.510129   -1.785330    1.111505
H      1.174347   -2.365011   -0.468218
H      2.096377   -0.243594   -0.991946
20

C      0.815067    0.341460   -2.028722
C      0.202577    0.061448   -0.869198
C      0.225990    0.959993    0.328364
C      1.651787    1.309607    0.775875
C     -0.520352    0.162944    1.404766
C     -1.330748   -0.907148    0.673518
C     -0.618764   -1.165994   -0.656777
O     -1.548043   -1.317876   -1.702629
O     -2.016445   -2.547744   -1.602862
H      1.375801    1.261510   -2.155342
H      0.753333   -0.346722   -2.866004
H     -0.331615    1.893624    0.093772
H      2.256339    0.388386    0.922420
H      1.618985    1.874751    1.731615
H      2.149264    1.949455    0.017422
H      0.191283   -0.343317    2.095297
H     -1.182836    0.824785    2.004064
H     -1.402523   -1.838604    1.276030
H     -2.357737   -0.518879    0.490446
H      0.068637   -2.041680   -0.582961
20

C     -2.056376   -1.193596   -0.029388
C     -0.816954   -0.686344   -0.013426
C      0.367355   -1.433221   -0.517784
C      1.561590   -0.652267    0.025821
O      2.605834   -0.643113   -0.917317
O      3.681812   -0.230014   -0.273972
C      1.047149    0.766519    0.312045
C     -0.457013    0.637469    0.583801
C     -1.245946    1.796223   -0.039895
H     -2.244557   -2.174729   -0.454252
H     -2.890354   -0.639370    0.388355
H      0.377380   -2.477198   -0.134525
H      0.353045   -1.436570   -1.629728
H      1.885256   -1.131493    0.981601
H      1.571995    1.209369    1.186344
H      1.236035    1.410625   -0.576728
H     -0.642276    0.605595    1.680340
H     -0.866642    2.764057    0.351583
H     -1.146029    1.790965   -1.146971
H     -2.321303    1.717092    0.224097
20

C     -1.973422   -0.484965    1.163468
C     -0.802974   -0.385092    0.520170
C      0.053605   -1.563161    0.215043
C      1.402170   -0.962555   -0.181373
O      2.259892   -0.971586    0.936434
O      3.486061   -0.831388    0.467675
C      1.107264    0.482854   -0.613694
C     -0.175310    0.909235    0.111593
C     -1.087952    1.743228   -0.797030
H     -2.359521   -1.456208    1.456989
H     -2.550680    0.399997    1.410063
H      0.152202   -2.230044    1.100051
H     -0.389377   -2.130373   -0.632261
H      1.832544   -1.554114   -1.025078
H      0.962036    0.494378   -1.717482
H      1.947069    1.169612   -0.370062
H      0.081795    1.493698    1.022640
H     -1.976803    2.095187   -0.232748
H     -0.539136    2.636163   -1.164857
H     -1.429466    1.145134   -1.669538
20

C     -1.982540    1.278326    0.041496
C     -0.753288    0.776199   -0.135650
C      0.426938    1.628257   -0.441403
C      1.484266    0.639673   -0.916836
C      1.105360   -0.725317   -0.330443
O      1.766565   -0.873536    0.909182
O      2.094833   -2.147729    1.018532
C     -0.430384   -0.686237   -0.158341
C     -0.932998   -1.423369    1.093698
H     -2.148715    2.350709    0.010433
H     -2.833659    0.626761    0.207981
H      0.196669    2.367025   -1.239980
H      0.760202    2.151019    0.481055
H      2.503178    0.958975   -0.606067
H      1.456770    0.581597   -2.028048
H      1.393633   -1.520392   -1.061578
H     -0.910123   -1.137555   -1.055206
H     -0.572327   -0.927351    2.020397
H     -0.581672   -2.476532    1.080292
H     -2.042708   -1.440522    1.110487
20

C     -1.869302    1.235031   -0.847743
C     -0.687085    0.702344   -0.512280
C      0.609270    1.374750   -0.796443
C      1.650669    0.285006   -0.575484
C      0.998553   -0.762423    0.339247
O      1.448108   -2.060697    0.032310
O      2.663894   -2.162066    0.536431
C     -0.516008   -0.655733    0.093728
C     -1.313056   -0.821767    1.394961
H     -1.919828    2.214527   -1.313143
H     -2.793965    0.696068   -0.669966
H      0.649714    1.747014   -1.843491
H      0.758560    2.215098   -0.084507
H      2.574284    0.700817   -0.117444
H      1.909991   -0.176812   -1.554515
H      1.228116   -0.499736    1.401280
H     -0.847317   -1.420302   -0.644319
H     -1.077084   -0.004005    2.109906
H     -2.402930   -0.811116    1.184344
H     -1.064582   -1.795998    1.867130
20

C      1.447105   -1.530570    0.524309
C      0.766304   -0.391423    0.330670
C      1.066657    0.850300    1.096606
C      0.168474    1.906506    0.468989
C     -0.955932    1.146730   -0.232165
C     -0.372244   -0.215974   -0.645813
C     -1.455665   -1.311313   -0.516192
O      0.101967   -0.101591   -1.975226
O      0.641197   -1.257747   -2.317587
H      2.250966   -1.572927    1.252775
H      1.211486   -2.429900   -0.033807
H      0.807934    0.702277    2.167584
H      2.137033    1.133599    0.996243
H     -0.231290    2.605196    1.235665
H      0.746067    2.486311   -0.284783
H     -1.338093    1.718102   -1.106684
H     -1.793351    1.023242    0.491472
H     -2.314814   -1.073684   -1.179213
H     -1.821195   -1.378786    0.531353
H     -1.062607   -2.308349   -0.804198
20

C     -1.027893    2.039235    0.065916
C     -0.775244    0.726177   -0.013006
C     -1.753060   -0.248792   -0.566774
C     -1.215093   -1.606604   -0.134160
C      0.269848   -1.411805    0.175552
C      0.458359    0.071466    0.526800
C      1.745020    0.648670   -0.087680
O      2.857510   -0.050639    0.406190
O      3.910592    0.489570   -0.176450
H     -1.958677    2.444962   -0.318287
H     -0.315819    2.717925    0.523413
H     -1.775814   -0.166831   -1.674958
H     -2.769946   -0.081422   -0.149046
H     -1.741821   -1.936696    0.788644
H     -1.365914   -2.370426   -0.927647
H      0.589023   -2.064436    1.017112
H      0.858127   -1.688588   -0.728060
H      0.479925    0.198739    1.632121
H      1.698787    0.565885   -1.198590
H      1.832088    1.723612    0.188003
18

C      2.312212    0.620859   -0.297938
C      1.082529    0.110396   -0.194201
C      0.709772   -1.223676   -0.730515
C     -0.812155   -1.317382   -0.548337
C     -1.251652   -0.164613    0.379536
O     -2.341145    0.538551   -0.166771
O     -3.410514   -0.197885    0.070040
C     -0.062286    0.728070    0.465949
C     -0.064090    1.893431    1.120487
H      2.564348    1.590383    0.106701
H      3.091726    0.063312   -0.801644
H      1.219743   -2.017618   -0.142767
H      0.986484   -1.310551   -1.803967
H     -1.094783   -2.299685   -0.111163
H     -1.304168   -1.222762   -1.542030
H     -1.478873   -0.547243    1.403006
H     -0.967198    2.246111    1.602307
H      0.820050    2.510301    1.191308
20

C     -1.410101    1.181329    0.421621
C     -1.008280   -0.299808    0.435679
C     -1.489020   -0.955112   -0.816229
C     -0.494171   -1.318871   -1.611067
C      0.837652   -0.985483   -1.039576
C      0.517237   -0.588336    0.410635
C      1.452645    0.497465    0.980048
O      1.477003    1.634667    0.156595
O      2.286922    2.491093    0.748654
H     -1.051229    1.690435    1.340132
H     -2.517590    1.268310    0.400853
H     -1.004339    1.697203   -0.474844
H     -1.476089   -0.792641    1.316284
H     -2.535407   -1.077341   -1.077705
H     -0.643007   -1.763632   -2.589496
H      1.279155   -0.148561   -1.621172
H      1.511349   -1.868418   -1.076846
H      0.676323   -1.497179    1.036419
H      2.478538    0.069636    1.053898
H      1.112408    0.765244    2.006121
20

C      1.766351    0.677751   -0.629449
C      0.906850   -0.427952    0.004034
C      0.886855   -0.238505    1.485378
C     -0.315546    0.067995    1.945969
C     -1.339715    0.136796    0.869471
C     -0.615271   -0.431554   -0.379522
C     -0.957092    0.420235   -1.617825
O     -1.057533   -1.750389   -0.667206
O     -0.844579   -2.506879    0.396504
H      2.807293    0.610265   -0.246411
H      1.808068    0.553978   -1.731542
H      1.369411    1.685472   -0.381148
H      1.376140   -1.407687   -0.234561
H      1.766459   -0.301742    2.118320
H     -0.516248    0.286515    2.989634
H     -1.639030    1.199800    0.739254
H     -2.236530   -0.459875    1.142677
H     -0.413873    0.039258   -2.508561
H     -0.705775    1.490966   -1.466126
H     -2.046236    0.355552   -1.828889
20

C      2.143848    0.353127   -0.031295
C      0.859023   -0.465949   -0.221760
C      0.579379   -1.244753    1.019677
C     -0.488503   -0.803865    1.661013
C     -1.121083    0.350399    0.971767
C     -0.424877    0.401212   -0.413159
C     -1.318152   -0.243546   -1.499944
O     -0.084099    1.726147   -0.782451
O     -1.198733    2.436025   -0.803221
H      2.997858   -0.322937    0.188712
H      2.380764    0.910933   -0.961965
H      2.032875    1.074163    0.807618
H      1.016934   -1.171591   -1.067820
H      1.206510   -2.049793    1.389545
H     -0.822896   -1.204474    2.612305
H     -0.910791    1.270018    1.559984
H     -2.220451    0.204127    0.896858
H     -0.808312   -0.201071   -2.486130
H     -2.289286    0.288570   -1.585834
H     -1.530007   -1.306743   -1.253902
20

C      0.330450    1.617674   -0.904528
C      0.406240    0.624959    0.265822
C      1.353205   -0.560515   -0.019957
O      2.620289   -0.359458    0.555962
O      3.298568    0.388294   -0.293642
C      0.683060   -1.706064    0.652664
C     -0.546179   -1.414008    1.046111
C     -0.939386   -0.018791    0.696235
C     -2.028855   -0.055332   -0.385798
H      1.325962    2.079386   -1.072315
H     -0.387703    2.430547   -0.666929
H      0.018520    1.112920   -1.842941
H      0.798550    1.184374    1.146482
H      1.421125   -0.796660   -1.108698
H      1.126786   -2.689964    0.766369
H     -1.207209   -2.133971    1.518287
H     -1.339313    0.492763    1.599161
H     -1.659770   -0.560116   -1.304632
H     -2.358958    0.974090   -0.637269
H     -2.915383   -0.610128   -0.010384
20

C     -1.104757    1.309970   -0.288824
C     -0.476336   -0.053035   -0.650418
C      1.058433   -0.128092   -0.411325
C      1.816178    1.204582   -0.344272
C      1.180224   -0.889492    0.863871
C      0.044337   -1.478428    1.198435
C     -1.038665   -1.215722    0.211582
O     -2.229767   -0.893051    0.888980
O     -3.211969   -1.117674    0.036247
H     -2.196987    1.294640   -0.485803
H     -0.936264    1.551254    0.782537
H     -0.678857    2.116527   -0.920818
H     -0.693103   -0.251613   -1.723690
H      1.514985   -0.744550   -1.217603
H      1.476292    1.821095    0.514795
H      2.903116    1.010342   -0.221680
H      1.674427    1.770438   -1.288969
H      2.106717   -1.026408    1.412834
H     -0.054155   -2.142677    2.051053
H     -1.153850   -2.138107   -0.406932
20

C     -0.743834    1.926742    0.189530
C      0.084931    0.713940    0.636269
C      1.331122    0.497135   -0.235472
C      1.457038   -0.982477   -0.285763
O      2.556382   -1.660078   -0.807433
O      3.602039   -0.989047   -1.307498
C      0.402360   -1.605877    0.199787
C     -0.651400   -0.653893    0.650404
C     -1.864227   -0.755911   -0.285955
H     -0.133167    2.849841    0.282621
H     -1.637903    2.035471    0.839016
H     -1.066656    1.828585   -0.868258
H      0.431786    0.916079    1.675760
H      1.188669    0.884176   -1.267974
H      2.231293    0.956942    0.226436
H      0.300259   -2.683568    0.220231
H     -0.966836   -0.909553    1.685759
H     -2.268824   -1.790624   -0.268475
H     -1.581579   -0.504722   -1.331107
H     -2.671454   -0.073159    0.052122
20

C      1.979606   -0.768881   -0.193892
C      0.971204    0.367539    0.026974
C      0.586847    0.539004    1.505066
C     -0.826316    0.990010    1.446475
C     -1.339564    0.845512    0.240550
O     -2.648679    1.216561   -0.062838
O     -3.123509    1.116400   -1.311137
C     -0.376183    0.249922   -0.733209
C     -0.801140   -1.188643   -1.070061
H      2.208251   -0.867882   -1.276015
H      1.591185   -1.735471    0.190329
H      2.924906   -0.536982    0.341161
H      1.459871    1.312097   -0.306142
H      0.637489   -0.422041    2.061745
H      1.223189    1.302828    2.001362
H     -1.380235    1.371533    2.294388
H     -0.348484    0.856780   -1.664791
H     -0.829985   -1.818622   -0.154844
H     -1.810482   -1.193184   -1.532265
H     -0.097971   -1.636480   -1.802856
20

C      1.952591    0.099078   -0.653332
C      0.702761    0.304176    0.214333
C      0.652209   -0.637531    1.428049
C     -0.796542   -0.952591    1.575457
C     -1.509087   -0.562338    0.528688
C     -0.655851    0.093822   -0.520010
C     -1.280315    1.437141   -0.919941
O     -0.544653   -0.705149   -1.688340
O     -0.235376   -1.938842   -1.325394
H      1.901658    0.753241   -1.549270
H      2.858315    0.372607   -0.071520
H      2.058206   -0.955943   -0.979536
H      0.751510    1.344200    0.612829
H      1.210899   -1.581207    1.246088
H      1.038680   -0.139318    2.343067
H     -1.217554   -1.498363    2.413360
H     -2.571909   -0.757020    0.423535
H     -1.445192    2.083186   -0.030045
H     -2.259002    1.270378   -1.419330
H     -0.611347    1.970476   -1.628688
20

C     -1.130922    1.372830   -0.207626
C     -0.897863   -0.141189   -0.366489
C     -1.520501   -0.901864    0.820527
C     -0.351072   -1.319894    1.639018
C      0.795322   -1.131893    1.007653
C      0.594143   -0.581624   -0.363059
C      1.644012    0.489540   -0.701941
O      1.460729    0.929497   -2.022015
O      2.385021    1.848000   -2.227443
H     -0.720326    1.927781   -1.075745
H     -2.221042    1.583250   -0.168278
H     -0.666234    1.749122    0.728831
H     -1.380586   -0.465913   -1.315224
H     -2.215018   -0.281167    1.427616
H     -2.055781   -1.807810    0.462728
H     -0.425864   -1.781657    2.618047
H      1.754903   -1.437717    1.412832
H      0.717410   -1.425222   -1.078864
H      2.656420    0.034724   -0.602722
H      1.577250    1.341206    0.012153
20

C     -1.717083    0.818816   -1.024572
C     -0.712251    0.426580    0.064310
C     -1.315716   -0.551799    1.087989
C     -0.274290   -1.600293    1.251006
C      0.720901   -1.463406    0.391479
C      0.528637   -0.295349   -0.515084
C      1.778540    0.596745   -0.565656
O      2.144890    1.011343    0.725979
O      3.212453    1.770410    0.570877
H     -2.069070   -0.077912   -1.578650
H     -2.593211    1.324571   -0.565916
H     -1.240778    1.520601   -1.741696
H     -0.410064    1.352509    0.604204
H     -1.507404   -0.047099    2.059211
H     -2.252112   -1.025682    0.720801
H     -0.338738   -2.415110    1.964627
H      1.551069   -2.159574    0.324786
H      0.324236   -0.686554   -1.536857
H      2.610644    0.019948   -1.030591
H      1.559347    1.481253   -1.206247
20

C      2.103106   -0.767387   -0.143587
C      0.775531   -0.302969    0.465150
C      0.808075    1.182871    0.869078
C     -0.471891    1.730100    0.355821
C     -1.117783    0.860329   -0.399513
O     -2.328413    1.128470   -1.041727
O     -2.940991    2.313381   -0.912000
C     -0.403692   -0.438357   -0.527522
C     -1.320468   -1.617435   -0.187503
H      2.035571   -1.840853   -0.420619
H      2.921760   -0.645473    0.597140
H      2.348905   -0.176138   -1.051893
H      0.583739   -0.906982    1.381650
H      0.858967    1.296415    1.973298
H      1.651739    1.731957    0.396819
H     -0.812663    2.739678    0.544911
H     -0.045626   -0.539762   -1.576342
H     -1.751970   -1.502396    0.830489
H     -2.149882   -1.679636   -0.923797
H     -0.744012   -2.565813   -0.229854
20

C     -1.313652    1.846102   -0.107799
C     -0.560928    0.595109   -0.567893
C      0.835395    0.925272   -0.960974
C      1.711812    0.132876   -0.380725
O      3.080830    0.226105   -0.619653
O      3.940504   -0.607271   -0.019460
C      1.087383   -0.865850    0.524365
C     -0.392979   -0.446442    0.565706
C     -1.339224   -1.640678    0.401615
H     -0.782047    2.340869    0.733851
H     -2.336180    1.568225    0.224947
H     -1.401970    2.566613   -0.948767
H     -1.078395    0.158250   -1.451002
H      1.103536    1.689598   -1.679557
H      1.546022   -0.814466    1.535373
H      1.227760   -1.882673    0.096808
H     -0.593229    0.022299    1.556523
H     -1.180011   -2.365394    1.228156
H     -1.160958   -2.155146   -0.567169
H     -2.393668   -1.293399    0.435654
20

C      0.718241    1.865351    0.069370
C      0.293055    0.473403   -0.430577
C      1.273994   -0.658040   -0.021053
O      2.496583   -0.182659    0.489872
O      3.275869    0.030301   -0.554007
C      0.544109   -1.398332    1.042093
C     -0.718715   -1.021505    1.144370
C     -1.069113    0.065328    0.186643
C     -2.047877   -0.455036   -0.870335
H      1.674478    2.171539   -0.404142
H      0.839544    1.866648    1.174126
H     -0.050844    2.617709   -0.207415
H      0.235177    0.520795   -1.541657
H      1.428449   -1.365786   -0.870541
H      0.972849   -2.207414    1.624703
H     -1.424200   -1.481420    1.829121
H     -1.550051    0.900878    0.742472
H     -1.608385   -1.309767   -1.429248
H     -2.292739    0.356374   -1.588155
H     -2.990423   -0.788367   -0.385642
20

C     -1.676980    1.303883    0.302223
C     -0.815518    0.043146    0.415578
C     -1.475938   -1.113671   -0.251792
C     -0.674062   -1.728237   -1.103891
C      0.671449   -1.101254   -1.171163
C      0.537596    0.178829   -0.325650
C      1.722851    0.360494    0.634994
O      1.581581    1.567584    1.336793
O      2.628794    1.644533    2.135230
H     -2.640158    1.154285    0.835204
H     -1.889999    1.543205   -0.762245
H     -1.150351    2.164221    0.766440
H     -0.670594   -0.208963    1.489637
H     -2.483166   -1.453215   -0.031347
H     -0.958726   -2.617634   -1.656438
H      0.930470   -0.860445   -2.224597
H      1.420748   -1.808922   -0.753942
H      0.514040    1.048972   -1.021729
H      2.664686    0.379762    0.040182
H      1.763278   -0.496571    1.346514
18

C     -1.366504   -1.344241    0.374217
C     -0.768043    0.062378    0.493663
C     -1.368021    1.033610   -0.547060
C     -0.207094    1.451481   -1.392763
C      0.929250    0.916409   -0.992456
C      0.691537    0.070731    0.161346
C      1.640805   -0.557974    0.857969
O      2.977412   -0.466852    0.481014
O      3.922874   -1.100197    1.185886
H     -1.183756   -1.765339   -0.638216
H     -2.461552   -1.303994    0.555441
H     -0.915225   -2.019274    1.131664
H     -0.925282    0.454664    1.522860
H     -1.801974    1.925065   -0.045352
H     -2.142918    0.556358   -1.185778
H     -0.282080    2.130637   -2.231822
H      1.888658    1.101642   -1.458391
H      1.371915   -1.145102    1.727779
18

C      0.671540    1.975287   -0.572105
C      0.426703    0.687089   -0.333369
C      1.438730   -0.320890   -0.096201
O      2.808111   -0.062644   -0.014643
O      3.690272   -1.047009    0.205619
C      0.883226   -1.513142    0.025337
C     -0.604776   -1.454037   -0.125836
C     -0.925791    0.045211   -0.336562
C     -1.816779    0.601074    0.780406
H      1.685198    2.355070   -0.574348
H     -0.141368    2.660994   -0.772594
H      1.437366   -2.426306    0.198972
H     -1.088964   -1.874048    0.782623
H     -0.911473   -2.047539   -1.013736
H     -1.415935    0.199153   -1.323399
H     -2.784764    0.056695    0.795733
H     -2.027537    1.676947    0.603802
H     -1.323760    0.488093    1.770302
18

C     -1.732082    1.467345    0.196148
C     -0.606352    0.780101    0.009945
C      0.722674    1.319477    0.210598
C      1.616568    0.411235   -0.140763
O      2.997051    0.604190   -0.078035
O      3.521412    1.757013    0.360336
C      0.999460   -0.861100   -0.626614
C     -0.522505   -0.627285   -0.495787
C     -1.171323   -1.617046    0.478848
H     -1.701081    2.492023    0.544376
H     -2.693727    1.012498   -0.002851
H      0.952390    2.311331    0.578970
H      1.279261   -1.029567   -1.688765
H      1.359661   -1.712766   -0.009123
H     -1.011225   -0.701822   -1.492483
H     -0.718615   -1.527912    1.490208
H     -1.029585   -2.655340    0.110823
H     -2.261980   -1.422376    0.554168
18

C      2.316026    0.522306    0.010398
C      1.129453   -0.043998   -0.204495
C      0.944257   -1.420180   -0.612003
C     -0.333303   -1.646115   -0.845424
C     -1.181211   -0.426535   -0.655054
O     -2.222816   -0.723271    0.245026
O     -3.194272    0.131715   -0.015225
C     -0.193289    0.651384   -0.119000
C     -0.478509    1.106770    1.321173
H      3.227791   -0.052360   -0.092779
H      2.385815    1.566690    0.285419
H      1.727828   -2.158529   -0.725306
H     -0.713904   -2.600923   -1.184372
H     -1.570699   -0.131912   -1.659113
H     -0.196505    1.535788   -0.793931
H     -1.466170    1.610383    1.374531
H     -0.470077    0.241274    2.018513
H      0.289585    1.837514    1.651644
18

C      1.684731   -0.030707    1.331316
C      0.651744    0.392070    0.599937
C     -0.060514    1.624930    0.863595
C     -1.074650    1.741412    0.032557
C     -1.186283    0.580978   -0.902726
C      0.029022   -0.327633   -0.572558
C     -0.452195   -1.747671   -0.197551
O      0.889675   -0.335748   -1.697759
O      1.920041   -1.114238   -1.421365
H      2.172030   -0.972679    1.120651
H      2.047324    0.560275    2.162962
H      0.185392    2.346174    1.632683
H     -1.760740    2.578126    0.044659
H     -2.161852    0.074397   -0.734301
H     -1.154055    0.948146   -1.951667
H     -1.174044   -1.704079    0.646663
H      0.395877   -2.393274    0.112871
H     -0.951503   -2.220478   -1.069968
18

C     -1.594346   -1.262457    0.786245
C     -0.373927   -0.855855    0.439263
C      0.727963   -1.750115    0.152047
C      1.830314   -1.051261   -0.029898
C      1.607776    0.420322    0.120611
C      0.090837    0.568400    0.382529
C     -0.600405    1.360438   -0.740609
O     -1.948919    1.575827   -0.417606
O     -2.460820    2.243388   -1.433737
H     -2.364558   -0.547541    1.042404
H     -1.830664   -2.318114    0.830842
H      0.673634   -2.830577    0.111182
H      2.791938   -1.500514   -0.240486
H      1.941576    0.943611   -0.801815
H      2.192242    0.796131    0.987786
H     -0.079584    1.066065    1.363283
H     -0.086744    2.342837   -0.851479
H     -0.516313    0.799412   -1.700562
18

C     -1.640762    0.823748    0.883616
C     -0.942566    0.247193   -0.350058
C     -1.277098   -1.199036   -0.521157
C     -0.204649   -1.982197   -0.442351
C      1.049191   -1.210296   -0.214215
C      0.544877    0.194600   -0.182163
C      1.327363    1.270916   -0.075267
O      2.706178    1.133915    0.053620
O      3.485691    2.216904    0.160089
H     -1.350071    0.265267    1.800093
H     -2.742674    0.760058    0.758207
H     -1.367832    1.892380    1.012094
H     -1.217411    0.816252   -1.264453
H     -2.280478   -1.577193   -0.689395
H     -0.244966   -3.062223   -0.538009
H      1.755831   -1.361919   -1.057712
H      1.510177   -1.490022    0.756699
H      0.889198    2.261654   -0.089640
18

C      0.899125    1.814141    0.074781
C      0.456666    0.569336   -0.141378
C     -0.981778    0.217546   -0.377364
C     -1.833381    0.418602    0.877477
C     -0.881766   -1.230906   -0.727349
C      0.368941   -1.682571   -0.677970
C      1.348072   -0.628073   -0.285192
O      1.932335   -0.971714    0.946668
O      3.076502   -0.317457    1.012869
H      0.203357    2.645544    0.125815
H      1.959229    2.012640    0.193084
H     -1.394579    0.791895   -1.234844
H     -1.410656   -0.145767    1.737223
H     -2.870148    0.066197    0.690743
H     -1.874828    1.496608    1.140735
H     -1.730023   -1.853295   -0.994065
H      0.639673   -2.710372   -0.897044
H      2.093261   -0.492355   -1.104180
18

C     -0.026683    2.046328    0.853026
C     -0.166539    0.778937    0.448899
C     -1.479826    0.159647    0.098150
C     -1.076465   -1.247585   -0.175853
O     -1.962238   -2.258462   -0.540538
O     -3.271620   -2.008820   -0.670591
C      0.224872   -1.454902   -0.037043
C      0.955689   -0.213729    0.352991
C      1.976906    0.175707   -0.717816
H     -0.889762    2.701318    0.918678
H      0.949546    2.435249    1.124177
H     -1.911205    0.631077   -0.810279
H     -2.183708    0.205063    0.956317
H      0.697532   -2.416600   -0.191500
H      1.447591   -0.350666    1.340251
H      2.495964    1.113089   -0.426436
H      2.739463   -0.625366   -0.821673
H      1.480483    0.329715   -1.700760
18

C     -2.237251   -0.557243   -0.230427
C     -1.043669    0.034014   -0.107771
C     -0.852400    1.414080    0.433432
C      0.611547    1.612641    0.257035
C      1.202460    0.548563   -0.277580
O      2.566433    0.472728   -0.565000
O      3.392227    1.496405   -0.307896
C      0.255370   -0.570748   -0.550725
C      0.617872   -1.811266    0.269600
H     -3.139432   -0.047900    0.093394
H     -2.320205   -1.551101   -0.658439
H     -1.419816    2.158774   -0.164234
H     -1.128226    1.461619    1.508142
H      1.130978    2.522811    0.526822
H      0.233358   -0.802997   -1.637513
H     -0.118739   -2.620734    0.082102
H      1.622021   -2.181561   -0.027672
H      0.627472   -1.578086    1.356730
18

C     -1.206024   -1.655645    0.391240
C     -0.770291   -0.499926   -0.123201
C     -1.680114    0.592356   -0.581749
C     -0.720025    1.553517   -1.192665
C      0.541441    1.139518   -1.105412
C      0.669733   -0.173848   -0.401723
C      1.497998   -0.016067    0.880861
O      1.697523   -1.270077    1.477984
O      2.401543   -1.041508    2.569919
H     -2.268311   -1.828033    0.533070
H     -0.509238   -2.441362    0.662780
H     -2.395605    0.221566   -1.346239
H     -2.208808    1.056628    0.277435
H     -1.011105    2.486992   -1.662918
H      1.381039    1.703608   -1.499160
H      1.123345   -0.926230   -1.083104
H      2.484848    0.429127    0.616741
H      0.972053    0.669384    1.586142
20

C     -0.926293    1.615146    0.545758
C     -0.710172    0.484350   -0.466233
C     -1.728587   -0.655443   -0.278477
C     -0.937731   -1.847457    0.269687
C      0.484706   -1.438815    0.142400
C      0.611830   -0.180142   -0.252467
C      1.940223    0.484041   -0.476897
O      2.618718    0.591584    0.745866
O      3.771141    1.170066    0.467809
H     -0.166151    2.411611    0.400762
H     -1.930936    2.065488    0.399188
H     -0.851678    1.231588    1.586536
H     -0.768257    0.889637   -1.500461
H     -2.558018   -0.383452    0.411383
H     -2.169978   -0.924565   -1.263514
H     -1.179948   -2.024242    1.339611
H     -1.131600   -2.766366   -0.323976
H      1.324080   -2.090669    0.364493
H      2.530173   -0.127165   -1.196951
H      1.778477    1.494805   -0.914517
20

C     -0.497682    2.174247   -0.050061
C      0.005956    0.764824   -0.129879
C      1.262438    0.421334    0.087933
O      2.253128    1.337315    0.439064
O      3.512405    0.936781    0.657019
C      1.498723   -1.035490   -0.075266
C      0.165173   -1.570649   -0.606397
C     -0.843948   -0.412838   -0.475040
C     -1.880365   -0.683201    0.621702
H      0.068383    2.816462   -0.757130
H     -1.573982    2.218432   -0.317681
H     -0.368201    2.560968    0.982535
H      1.740528   -1.487837    0.910527
H      2.322559   -1.220763   -0.797587
H      0.276663   -1.845139   -1.678687
H     -0.145646   -2.479732   -0.045359
H     -1.360384   -0.237220   -1.444436
H     -2.581899    0.173166    0.708424
H     -1.382778   -0.841957    1.603089
H     -2.471070   -1.588702    0.367230
20

C     -1.832041    1.558628   -0.201057
C     -0.548419    0.782538   -0.207574
C      0.630788    1.331312    0.043640
C      1.742937    0.347374   -0.034926
O      2.271084    0.149644    1.252906
O      3.436776   -0.446507    1.086002
C      1.070595   -0.932528   -0.563299
C     -0.446603   -0.679616   -0.496847
C     -1.113657   -1.505369    0.609085
H     -1.771101    2.390724   -0.933615
H     -2.683750    0.903443   -0.479166
H     -2.013357    1.974173    0.812338
H      0.766904    2.378922    0.295022
H      2.513368    0.728012   -0.746218
H      1.369767   -1.090407   -1.623048
H      1.380477   -1.831550    0.014747
H     -0.922394   -0.908290   -1.475905
H     -0.989033   -2.588675    0.398095
H     -0.661166   -1.276913    1.598536
H     -2.201174   -1.284915    0.651284
20

C     -1.645800    1.735535    0.251390
C     -0.466823    0.821513    0.094843
C      0.734558    1.099640    0.578883
C      1.722884    0.027834    0.287165
O      2.854482    0.586734   -0.331170
O      3.787735   -0.345958   -0.300083
C      0.972453   -0.923246   -0.661933
C     -0.504710   -0.492065   -0.616440
C     -1.370552   -1.503088    0.143733
H     -1.412624    2.727463   -0.189565
H     -2.533463    1.316966   -0.267164
H     -1.883386    1.859334    1.328772
H      0.962152    1.994905    1.149870
H      1.982985   -0.480037    1.245503
H      1.352683   -0.810342   -1.701798
H      1.121575   -1.981617   -0.353379
H     -0.902264   -0.356000   -1.646352
H     -1.349891   -2.483934   -0.376959
H     -0.997708   -1.638776    1.182243
H     -2.424286   -1.154863    0.182443
20

C      2.058228    0.699716   -1.070543
C      0.771779    0.038594   -0.673464
C      0.462944   -1.206797   -1.005902
C     -0.863351   -1.613119   -0.471933
C     -1.481264   -0.299272    0.022723
O     -2.172253   -0.507804    1.232691
O     -3.002071    0.510135    1.365868
C     -0.291946    0.685022    0.156176
C      0.201907    0.865952    1.600061
H      2.086446    1.746348   -0.701856
H      2.148138    0.710524   -2.177090
H      2.915373    0.142411   -0.637783
H      1.117565   -1.862941   -1.571287
H     -0.715897   -2.332835    0.362492
H     -1.482309   -2.075938   -1.270295
H     -2.171902    0.067196   -0.776195
H     -0.562097    1.674917   -0.272765
H     -0.577470    1.365694    2.212375
H      1.107746    1.508193    1.618769
H      0.450433   -0.115997    2.057958
20

C      2.139654    0.321416   -1.074997
C      0.793893   -0.115381   -0.576187
C      0.327023   -1.343127   -0.738387
C     -1.032995   -1.508294   -0.165471
C     -1.445995   -0.091317    0.275940
O     -2.441540    0.419745   -0.580354
O     -3.582310   -0.119331   -0.191454
C     -0.169408    0.771485    0.144861
C      0.387494    1.182055    1.513818
H      2.298988    1.400613   -0.870339
H      2.205598    0.155592   -2.170868
H      2.935201   -0.262854   -0.566814
H      0.881925   -2.142070   -1.220680
H     -0.984178   -2.192410    0.708773
H     -1.720730   -1.927216   -0.931344
H     -1.806353   -0.107402    1.333681
H     -0.361645    1.684743   -0.461325
H     -0.357906    1.804865    2.052457
H      1.312985    1.782963    1.389517
H      0.620298    0.285927    2.129174
20

C      2.200217    0.051116    0.047579
C      0.741731    0.370357   -0.134914
C      0.332555    1.371721   -0.900883
C     -1.144629    1.503777   -0.916202
C     -1.639008    0.245236   -0.201567
C     -0.410264   -0.347906    0.526792
C     -0.354070   -1.877479    0.317683
O     -0.511375   -0.007540    1.897726
O      0.559997   -0.471592    2.514910
H      2.718941    0.921204    0.502088
H      2.344883   -0.829782    0.703885
H      2.658850   -0.170766   -0.938928
H      1.003707    2.038282   -1.434086
H     -1.521932    1.551271   -1.960213
H     -1.441864    2.417649   -0.358261
H     -2.043390   -0.459511   -0.962916
H     -2.462145    0.491226    0.505237
H     -1.270089   -2.349084    0.733149
H     -0.287076   -2.121113   -0.764766
H      0.524963   -2.327065    0.823689
20

C     -1.503333    1.794673   -0.115745
C     -0.920310    0.414317   -0.041916
C     -1.539356   -0.657595   -0.512891
C     -0.755601   -1.900104   -0.294936
C      0.432521   -1.456165    0.563990
C      0.400628    0.085118    0.577541
C      1.555794    0.695948   -0.231126
O      2.777146    0.393978    0.391219
O      3.711269    0.935919   -0.366379
H     -2.494446    1.810748    0.384496
H     -0.839689    2.525289    0.391880
H     -1.623487    2.094024   -1.178022
H     -2.502087   -0.628727   -1.014009
H     -1.371569   -2.659939    0.231983
H     -0.409652   -2.298221   -1.272954
H      0.303907   -1.838420    1.600745
H      1.383361   -1.866423    0.157935
H      0.428604    0.464910    1.622987
H      1.540360    0.289622   -1.269422
H      1.425941    1.801048   -0.276283
18

C      0.220092    1.573963   -1.220640
C     -0.058069    0.482384   -0.506379
C      0.604267    0.091159    0.727719
C      1.733427    0.823043    1.388209
C      0.025907   -0.989816    1.219607
C     -1.102540   -1.469778    0.363702
C     -1.140453   -0.498002   -0.832228
O     -0.836345   -1.192802   -2.019250
O     -1.391815   -0.514863   -3.006150
H     -0.342735    1.803915   -2.115626
H      1.005264    2.254001   -0.917575
H      1.375467    1.811086    1.745235
H      2.128807    0.249792    2.253865
H      2.557344    0.973638    0.659900
H      0.322024   -1.465035    2.146278
H     -2.051922   -1.423520    0.939489
H     -0.913182   -2.517145    0.042948
H     -2.135536    0.007982   -0.869104
18

C      0.632134    2.066285   -0.487204
C      0.114210    0.895049   -0.118998
C     -1.273014    0.710666    0.390817
C     -1.353667   -0.803800    0.680842
O     -2.343312   -1.422273   -0.102642
O     -3.495548   -1.157637    0.484157
C     -0.009724   -1.334185    0.287735
C      0.799452   -0.385758   -0.151533
C      2.208862   -0.614685   -0.607156
H      0.038281    2.969304   -0.426609
H      1.648752    2.137346   -0.851069
H     -1.423303    1.297852    1.322592
H     -2.008781    1.023856   -0.382023
H     -1.506693   -0.999071    1.768330
H      0.270160   -2.377482    0.364183
H      2.482321   -1.689300   -0.538546
H      2.315627   -0.287255   -1.662292
H      2.904243   -0.028911    0.029416
18

C     -1.066205   -1.183731   -1.201690
C     -0.871441   -0.473844    0.139163
C     -1.813065    0.682306    0.274691
C     -1.143409    1.817975    0.389127
C      0.279500    1.536137    0.352390
C      0.452753    0.228508    0.217841
C      1.792263   -0.442499    0.186553
O      2.471765   -0.184079    1.386161
O      3.640264   -0.785937    1.274307
H     -0.915355   -0.479265   -2.048583
H     -2.093595   -1.601864   -1.260915
H     -0.344867   -2.022003   -1.298584
H     -0.995505   -1.179833    0.988356
H     -2.892988    0.610649    0.280341
H     -1.593225    2.795461    0.500644
H      1.071856    2.268201    0.440612
H      2.368651   -0.046948   -0.680063
H      1.652604   -1.539235    0.059650
18

C      2.008308    0.419213   -0.424700
C      0.771790   -0.385878   -0.174127
C      0.785668   -1.619088    0.310277
C     -0.572433   -2.127640    0.334211
C     -1.390364   -1.199797   -0.135554
C     -0.632285    0.039217   -0.502913
C     -1.101041    1.229216    0.344625
O     -0.448393    2.399098   -0.072315
O     -0.897749    3.361135    0.710471
H      2.497475    0.662475    0.541590
H      2.713124   -0.161557   -1.056284
H      1.760859    1.361825   -0.954081
H      1.671374   -2.167561    0.604021
H     -0.875044   -3.111703    0.666335
H     -2.460396   -1.328725   -0.235026
H     -0.740549    0.247848   -1.589399
H     -2.200612    1.351033    0.211266
H     -0.889732    1.030891    1.421604
20

C     -2.173405   -0.840119    0.038346
C     -0.898182   -0.051132   -0.048236
C      0.322600   -0.577608    0.006625
C      0.610140   -2.045816    0.151206
C      1.391005    0.456437   -0.102597
O      2.158034    0.461189    1.076228
O      3.255520    1.139836    0.798791
C      0.621529    1.778948   -0.270751
C     -0.867717    1.428246   -0.202526
H     -2.216888   -1.382191    1.006145
H     -2.223326   -1.569700   -0.796847
H     -3.050690   -0.162918   -0.028945
H      0.167041   -2.603002   -0.700587
H      1.705712   -2.225663    0.160232
H      0.180550   -2.422387    1.103030
H      2.013645    0.234624   -1.001614
H      0.861917    2.235644   -1.255839
H      0.881555    2.506977    0.529181
H     -1.389950    1.727302   -1.136922
H     -1.349089    1.911334    0.675079
22

C      1.521013   -1.141880   -0.971660
C      0.408471   -1.343859    0.065972
C     -1.002477   -1.266377   -0.528895
C     -1.343775   -0.097308    0.402468
C     -1.745351    1.181816   -0.344400
C      0.070697   -0.173252    1.009980
C      0.967415    1.088089    1.006765
O      1.118802    1.645869   -0.271098
O      1.897897    2.698930   -0.115750
H      2.479109   -0.910127   -0.461385
H      1.653710   -2.081544   -1.547812
H      1.276763   -0.336416   -1.694582
H      0.560673   -2.288651    0.634737
H     -1.602817   -2.173055   -0.296269
H     -1.024818   -1.005777   -1.610608
H     -2.118491   -0.382685    1.149241
H     -1.110232    1.361689   -1.236208
H     -1.688410    2.054656    0.338937
H     -2.794560    1.082963   -0.693570
H      0.002024   -0.551953    2.055286
H      1.963302    0.802860    1.414970
H      0.511055    1.836010    1.693880
22

C     -1.972565   -0.811137    0.588782
C     -0.992094   -0.669254   -0.585292
C      0.266195   -1.525457   -0.420343
C      1.140637   -0.271213   -0.482408
C      1.977372   -0.055460    0.786319
C     -0.123762    0.610292   -0.651999
C     -0.403670    1.677444    0.436677
O     -0.211043    1.166652   -1.947255
O      0.793764    2.014910   -2.071751
H     -2.480273   -1.796344    0.523239
H     -2.746279   -0.017219    0.532940
H     -1.455278   -0.757179    1.569668
H     -1.501632   -0.883583   -1.552103
H      0.432748   -2.193499   -1.293655
H      0.321924   -2.068478    0.549786
H      1.785006   -0.277162   -1.390133
H      2.417802    0.963392    0.777603
H      2.806171   -0.793863    0.808170
H      1.372303   -0.188508    1.707647
H     -0.401022    1.255981    1.460753
H     -1.393863    2.144787    0.252710
H      0.367560    2.474897    0.400643
22

C     -1.589707   -1.110485    1.084284
C     -1.043716   -0.464906   -0.196889
C      0.104169   -1.269411   -0.813036
C      1.056687   -0.089896   -0.606199
C      2.211279   -0.412900    0.352303
C     -0.097000    0.744224   -0.005622
C     -0.447841    1.955604   -0.896126
O      0.147453    1.100997    1.342303
O     -0.937506    1.706160    1.789751
H     -2.062635   -2.083640    0.834756
H     -2.364808   -0.457338    1.535831
H     -0.781390   -1.289751    1.825402
H     -1.854816   -0.275563   -0.935524
H     -0.068618   -1.478930   -1.891406
H      0.381273   -2.182041   -0.238503
H      1.437904    0.303107   -1.575868
H      1.841122   -0.869644    1.295467
H      2.909891   -1.124633   -0.135679
H      2.766694    0.517741    0.593221
H     -1.417987    2.398635   -0.587712
H     -0.535712    1.654845   -1.962627
H      0.345264    2.727828   -0.808129
22

C      2.006250   -0.737729    0.642350
C      1.023295   -0.715713   -0.536876
C     -0.295747   -1.430580   -0.230787
C     -1.071902   -0.116639   -0.441758
C     -1.799687    0.383556    0.825880
O     -1.918948   -0.148493   -1.571538
O     -2.836556   -1.070478   -1.342696
C      0.255142    0.594661   -0.792677
C      0.653700    1.826194    0.041573
H      2.425394   -1.760129    0.750056
H      2.844232   -0.036134    0.448207
H      1.509675   -0.465167    1.597459
H      1.496249   -1.101990   -1.467393
H     -0.365431   -1.827955    0.806536
H     -0.525898   -2.203699   -0.996571
H     -2.159913    1.422272    0.671674
H     -1.135289    0.352706    1.714511
H     -2.674998   -0.261714    1.048279
H      0.298135    0.853762   -1.875264
H      0.661649    1.627754    1.131158
H      1.667982    2.161481   -0.260385
H     -0.057334    2.654036   -0.161738
22

C      2.210604   -0.862403    0.134527
C      0.794122   -0.883278   -0.458386
C     -0.274956   -1.311143    0.549260
C     -1.006773    0.025839    0.361083
C     -2.408802   -0.163063   -0.256012
O     -1.019807    0.747810    1.576552
O     -1.591181    1.912971    1.332530
C      0.077663    0.468018   -0.650291
C      0.876754    1.730439   -0.282468
H      2.556265   -1.905618    0.292179
H      2.908426   -0.368226   -0.573129
H      2.241473   -0.336465    1.111824
H      0.752400   -1.499468   -1.384352
H      0.113851   -1.448771    1.583231
H     -0.846815   -2.197584    0.195220
H     -2.819951    0.812195   -0.591368
H     -3.095092   -0.603957    0.497479
H     -2.367545   -0.837452   -1.138625
H     -0.321491    0.554494   -1.686177
H      1.220505    1.716000    0.772527
H      1.758844    1.822077   -0.950026
H      0.241509    2.627586   -0.435578
22

C     -0.316986   -0.672536    1.708526
C     -0.368704   -1.055126    0.218776
C      0.851813   -0.718380   -0.659707
C      2.016663    0.073153   -0.028078
O      1.609786    1.345069    0.407117
O      2.681045    1.905370    0.934725
C     -0.047063    0.099844   -1.594871
C     -1.260071   -0.208166   -0.709852
C     -1.907039    1.049007   -0.111848
H     -0.105102    0.400002    1.877208
H     -1.293261   -0.910632    2.180228
H      0.465673   -1.273290    2.217045
H     -0.626706   -2.133805    0.120073
H      1.233591   -1.631824   -1.169068
H      2.431052   -0.515808    0.820831
H      2.812493    0.181971   -0.799105
H     -0.137493   -0.370178   -2.598679
H      0.209554    1.180170   -1.656653
H     -2.009486   -0.835976   -1.241785
H     -1.150507    1.739909    0.315280
H     -2.630932    0.760489    0.678658
H     -2.458321    1.590738   -0.908820
22

C      0.551669   -1.926527   -0.182956
C      0.102814   -0.631274   -0.883370
C     -1.159600    0.068807   -0.344914
C     -1.783276   -0.495818    0.938990
C     -0.343703    1.347305   -0.097821
O     -0.725863    2.389240   -0.959463
O     -1.792947    2.936607   -0.410099
C      0.920902    0.646415   -0.612570
C      2.030576    0.557996    0.445063
H      0.659505   -1.808246    0.913260
H     -0.191211   -2.727558   -0.379766
H      1.527623   -2.251327   -0.600396
H      0.010447   -0.806442   -1.978935
H     -1.925142    0.195923   -1.143311
H     -1.052073   -0.523906    1.774217
H     -2.170784   -1.519079    0.752217
H     -2.633652    0.148607    1.245869
H     -0.274561    1.666577    0.970165
H      1.302904    1.091921   -1.558878
H      2.825393   -0.136381    0.101191
H      1.638864    0.214725    1.425760
H      2.482114    1.562436    0.585744
22

C      0.554632   -1.877312    0.283822
C      0.140987   -0.831477   -0.767585
C     -1.159913   -0.042617   -0.516013
C     -1.895458   -0.311539    0.808183
C     -0.370246    1.279052   -0.582108
O     -0.374163    2.010910    0.621449
O     -1.430038    2.799541    0.562972
C      0.932752    0.490918   -0.805573
C      2.018269    0.692053    0.265835
H      0.586949   -1.465182    1.311492
H     -0.164772   -2.722498    0.265289
H      1.559561   -2.275680    0.031503
H      0.120795   -1.300187   -1.777296
H     -1.856689   -0.135193   -1.378846
H     -1.243836   -0.139546    1.689961
H     -2.263694   -1.358541    0.826153
H     -2.773377    0.363407    0.885073
H     -0.625626    1.895259   -1.477249
H      1.346161    0.678698   -1.821895
H      2.838443   -0.039498    0.109833
H      1.617608    0.575463    1.294193
H      2.441655    1.713969    0.170809
22

C      1.457343   -1.732072   -1.057972
C      0.768464   -0.391859   -0.785030
C     -0.607775   -0.267956   -1.443472
C     -1.265239   -0.180990   -0.064289
C     -2.044625    1.123053    0.158138
C      0.118046   -0.309401    0.603826
C      0.612805    0.883411    1.439078
O      1.910422    0.613991    1.899518
O      2.261855    1.661251    2.620694
H      1.758975   -1.784776   -2.125158
H      2.366678   -1.816802   -0.426642
H      0.782040   -2.585804   -0.832651
H      1.425314    0.473208   -1.029395
H     -0.696841    0.662831   -2.046323
H     -0.925387   -1.176123   -2.002352
H     -1.899368   -1.072002    0.142498
H     -2.978485    1.097144   -0.441715
H     -1.459433    2.013640   -0.152868
H     -2.321316    1.218536    1.228785
H      0.191909   -1.259630    1.180597
H     -0.072587    1.015890    2.306281
H      0.617204    1.814460    0.828452
22

C     -2.194931   -0.529154    0.440383
C     -0.761863   -0.145146    0.833470
C      0.233283   -1.300748    0.711346
C      1.059484   -0.494811   -0.294469
C      2.482686   -0.196308    0.196412
C      0.055711    0.676021   -0.194655
C     -0.608094    0.984494   -1.555138
O      0.637857    1.828313    0.378608
O     -0.355071    2.637575    0.699582
H     -2.225465   -1.088568   -0.517961
H     -2.817460    0.385644    0.352552
H     -2.631311   -1.174178    1.231663
H     -0.731541    0.301225    1.852906
H     -0.196076   -2.219606    0.254011
H      0.758595   -1.503377    1.671019
H      1.074272   -0.986799   -1.293250
H      3.077791   -1.133647    0.198872
H      2.968507    0.528943   -0.489618
H      2.478474    0.223407    1.225525
H     -1.490662    1.643425   -1.416994
H     -0.934610    0.057980   -2.072533
H      0.120423    1.505314   -2.211730
22

C      0.723960    2.020580    0.572239
C      0.224857    0.796525   -0.207485
C     -1.160310    0.319055    0.251875
C     -2.174529    0.199974   -0.889607
C     -0.563796   -1.024123    0.678848
C      0.829273   -0.557880    0.222878
C      1.404083   -1.351817   -0.965522
O      1.748831   -0.427549    1.287682
O      1.946012   -1.638781    1.775450
H      1.790781    2.207973    0.328398
H      0.132078    2.912651    0.277905
H      0.622497    1.874037    1.669292
H      0.284575    0.975949   -1.305551
H     -1.571353    0.886829    1.117004
H     -2.444566    1.213717   -1.252896
H     -3.093403   -0.301676   -0.519943
H     -1.761099   -0.387443   -1.737717
H     -0.952093   -1.894250    0.103448
H     -0.636984   -1.171143    1.778840
H      1.634149   -2.394189   -0.660567
H      2.337828   -0.867885   -1.321733
H      0.679209   -1.390555   -1.806956
22

C      0.561267    1.646394    1.054314
C     -0.014912    0.799497   -0.090472
C     -1.070585   -0.215909    0.382100
C     -2.437856   -0.047646   -0.286987
C     -0.238443   -1.373541   -0.186465
C      0.853364   -0.374217   -0.620888
C      2.183391   -0.620772    0.112793
O      1.096298   -0.334778   -2.020312
O     -0.054741   -0.204155   -2.656128
H      1.464475    2.187937    0.703582
H     -0.194496    2.396651    1.368427
H      0.821131    1.030695    1.940417
H     -0.384262    1.463795   -0.903402
H     -1.161399   -0.283175    1.489768
H     -2.349862   -0.003964   -1.392742
H     -2.911760    0.890300    0.071110
H     -3.092003   -0.902235   -0.014307
H     -0.726920   -1.909060   -1.029731
H      0.084835   -2.075661    0.613728
H      2.036407   -0.768122    1.203337
H      2.871732    0.234817   -0.051210
H      2.664340   -1.536851   -0.291051
22

C     -0.854451   -0.569429    1.824048
C     -0.210269   -0.715455    0.437917
C      0.878048    0.332354    0.163260
C      2.234324   -0.279937   -0.208841
O      3.112897    0.741010   -0.600870
O      4.252827    0.143396   -0.889923
C      0.083047    0.847721   -1.040457
C     -1.008068   -0.190829   -0.771309
C     -2.385709    0.428933   -0.497134
H     -1.121404    0.484641    2.048010
H     -1.765247   -1.201012    1.884461
H     -0.137555   -0.916156    2.597631
H      0.133076   -1.761009    0.267287
H      0.970216    1.103353    0.961633
H      2.638257   -0.805181    0.686116
H      2.108978   -1.017746   -1.035306
H      0.585560    0.682355   -2.019239
H     -0.249053    1.899956   -0.898360
H     -1.059032   -0.950001   -1.583578
H     -2.325718    1.265275    0.230479
H     -3.077335   -0.347968   -0.109649
H     -2.803388    0.825728   -1.446176
22

C     -0.223874   -1.370429    1.455434
C     -0.467848   -0.009274    0.787930
C      0.731714    0.666139    0.094216
C      2.083073   -0.066656    0.137502
O      3.025725    0.663966   -0.601423
O      4.158097   -0.005795   -0.503715
C      0.014563    0.551202   -1.253844
C     -1.177529   -0.121214   -0.568478
C     -2.469535    0.696875   -0.651180
H      0.469745   -1.250656    2.313653
H     -1.187631   -1.765861    1.839371
H      0.194334   -2.112590    0.743629
H     -0.971396    0.692943    1.490463
H      0.833042    1.727900    0.413624
H      2.412112   -0.137575    1.198646
H      1.986290   -1.091453   -0.286889
H      0.516136   -0.130483   -1.975912
H     -0.217401    1.547711   -1.691019
H     -1.322303   -1.168038   -0.918870
H     -2.304622    1.745511   -0.321237
H     -3.243621    0.233956   -0.003790
H     -2.839071    0.703821   -1.698109
22

C     -1.746276    1.349257   -0.747011
C     -0.379453    0.659392   -0.864813
C     -0.277102   -0.799295   -0.376295
C     -1.546964   -1.439974    0.202450
C      0.725606   -0.363140    0.702094
C      2.103042   -1.020722    0.543676
C      0.617101    1.094550    0.216354
O      1.799319    1.594375   -0.360338
O      2.488859    2.126982    0.630197
H     -2.479075    0.849243   -1.414161
H     -2.128133    1.336417    0.295323
H     -1.649672    2.408086   -1.066602
H      0.035441    0.767514   -1.892517
H      0.174064   -1.450600   -1.158897
H     -2.314873   -1.539326   -0.592872
H     -1.962886   -0.847984    1.044499
H     -1.303405   -2.454951    0.580737
H      0.338930   -0.473204    1.740210
H      2.023811   -2.103036    0.778208
H      2.822431   -0.559889    1.252352
H      2.490052   -0.909534   -0.492136
H      0.169182    1.775839    0.979541
22

C     -1.407733    1.675599   -0.462469
C     -0.180844    0.789465   -0.738306
C     -0.339417   -0.726520   -0.508636
C     -1.680567   -1.217806    0.055279
C      0.774093   -0.676823    0.548462
C      2.015825   -1.485044    0.159543
C      0.933972    0.832118    0.322758
O      0.589795    1.549485    1.483294
O      0.969172    2.794246    1.266509
H     -2.213730    1.432179   -1.185826
H     -1.130113    2.741380   -0.601283
H     -1.795498    1.546530    0.569083
H      0.230681    0.994702   -1.751811
H     -0.056855   -1.301997   -1.419249
H     -2.489616   -1.035604   -0.682495
H     -1.934704   -0.717057    1.013085
H     -1.619233   -2.310452    0.242295
H      0.428096   -0.924747    1.577875
H      1.778348   -2.569112    0.192425
H      2.363015   -1.223785   -0.863646
H      2.834732   -1.278362    0.880203
H      1.930583    1.111604   -0.097091
22

C      1.204523   -0.845304   -1.718735
C      0.692777   -0.860225   -0.275454
C     -0.747182   -1.361113   -0.144571
C     -1.180042    0.011514    0.375397
C     -2.174045    0.726068   -0.544844
C      0.260655    0.522847    0.233347
C      0.899715    0.908971    1.573167
O      2.258081    1.196511    1.373043
O      2.733399    1.530681    2.557314
H      2.184677   -0.325425   -1.759039
H      1.339843   -1.887658   -2.076216
H      0.492767   -0.323284   -2.394200
H      1.386713   -1.398299    0.409084
H     -0.843941   -2.149780    0.633255
H     -1.216997   -1.648248   -1.112222
H     -1.542534   -0.034729    1.427176
H     -1.809511    0.746776   -1.594635
H     -2.319343    1.769526   -0.194614
H     -3.152053    0.201454   -0.514832
H      0.370789    1.332633   -0.524443
H      0.786803    0.077403    2.307288
H      0.374906    1.809682    1.964734
22

C     -0.632347   -1.603499    1.554531
C     -0.278109   -0.355840    0.740069
C      0.935307   -0.554203   -0.180705
C      2.059555    0.479015    0.006640
O      1.561855    1.791679   -0.042790
O      2.605782    2.579189    0.130038
C      0.047615   -0.318879   -1.406368
C     -1.171780   -0.162068   -0.493580
C     -1.824993    1.220921   -0.569872
H      0.148701   -1.778422    2.323959
H     -1.606300   -1.449378    2.064745
H     -0.705262   -2.502941    0.905399
H     -0.207376    0.548031    1.386672
H      1.335941   -1.593265   -0.164015
H      2.544679    0.291478    0.991136
H      2.812822    0.326099   -0.798954
H     -0.026103   -1.224075   -2.047904
H      0.302540    0.598017   -1.983096
H     -1.912096   -0.979832   -0.645597
H     -1.078190    2.032043   -0.437103
H     -2.595600    1.310539    0.224269
H     -2.316644    1.345390   -1.557474
22

C      0.269527   -2.030965   -0.996509
C      0.156825   -0.912803    0.043977
C     -1.058422   -0.001020   -0.176343
C     -1.917115    0.180412    1.078301
C     -0.121663    1.185657   -0.443576
O     -0.197436    1.624893   -1.775835
O     -1.249798    2.418143   -1.832998
C      1.092376    0.272135   -0.236660
C      1.949806    0.665657    0.969973
H      1.247490   -2.544604   -0.885082
H      0.189757   -1.630048   -2.030281
H     -0.541718   -2.771551   -0.835021
H      0.235910   -1.309523    1.082118
H     -1.673293   -0.277977   -1.062918
H     -1.296669    0.468011    1.954452
H     -2.444257   -0.769360    1.307735
H     -2.673730    0.972903    0.899064
H     -0.186648    2.018172    0.298175
H      1.707153    0.151157   -1.157771
H      2.707544   -0.123278    1.159811
H      1.328536    0.794138    1.882588
H      2.475825    1.619850    0.756801
22

C      2.801644    0.774446   -0.517559
C      1.642028   -0.204836   -0.304389
C      0.469635    0.508613    0.390157
C     -0.753745   -0.415990    0.542403
C     -1.541458   -0.635030   -0.749643
C     -2.748927    0.054543   -0.129982
C     -1.966157    0.282711    1.155779
O      2.070316   -1.280941    0.498280
O      2.690846   -2.126875   -0.303347
H      2.471597    1.633634   -1.139768
H      3.173510    1.154109    0.458251
H      3.637303    0.266911   -1.044040
H      1.289658   -0.558941   -1.302781
H      0.186428    1.416632   -0.188577
H      0.791883    0.839700    1.402012
H     -0.520773   -1.369928    1.066462
H     -1.727493   -1.712165   -0.953210
H     -1.146351   -0.078189   -1.627843
H     -3.609681   -0.635369    0.010284
H     -3.008171    1.005157   -0.645477
H     -2.390985   -0.282022    2.014371
H     -1.811108    1.363831    1.368617
22

C     -2.899419   -0.473958   -0.789679
C     -1.431127   -0.892027   -0.742658
C     -0.605108   -0.000617    0.204230
O     -1.043011   -0.196031    1.532221
O     -1.777773    0.851848    1.857576
C      0.886471   -0.389592    0.127562
C      1.800045    0.520393    0.949565
C      2.511792    0.958428   -0.322629
C      1.598266    0.064304   -1.148841
H     -3.376675   -0.614687    0.202873
H     -3.439767   -1.101791   -1.529179
H     -2.989208    0.590112   -1.095599
H     -1.367098   -1.952388   -0.413525
H     -1.021493   -0.828759   -1.773892
H     -0.704164    1.064389   -0.126144
H      1.066496   -1.465600    0.351225
H      2.466511   -0.052376    1.630914
H      1.274741    1.364986    1.448277
H      2.364775    2.038433   -0.543070
H      3.573494    0.629209   -0.353247
H      2.151030   -0.764890   -1.641967
H      0.961219    0.650615   -1.847165
22

C      3.003765   -0.993480   -0.297843
C      1.883669   -0.003429    0.007369
C      0.579295   -0.411887   -0.687565
C     -0.545146    0.597290   -0.395014
C     -1.885882    0.200473   -1.012778
C     -2.495394    0.080914    0.377685
C     -1.156591    0.466690    1.003111
O     -1.212016    1.712894    1.649268
O     -1.713793    1.475438    2.845842
H      3.934122   -0.672233    0.216163
H      2.730713   -2.007979    0.063149
H      3.197296   -1.032443   -1.391043
H      1.730561    0.035765    1.107495
H      2.192127    1.006774   -0.339891
H      0.748328   -0.442373   -1.786274
H      0.279591   -1.431539   -0.356579
H     -0.264956    1.642486   -0.659233
H     -1.870592   -0.773092   -1.551403
H     -2.340538    1.026187   -1.602730
H     -3.299776    0.828731    0.554470
H     -2.789968   -0.962801    0.622822
H     -0.704816   -0.342388    1.624921
22

C      3.154163   -0.429101    0.259737
C      1.922243    0.429207   -0.011955
C      0.679252   -0.440885   -0.234256
C     -0.561648    0.426424   -0.527043
C     -1.148693    1.111745    0.708317
C     -2.455203    0.353288    0.514158
C     -1.876821   -0.342493   -0.716332
O     -1.740946   -1.729397   -0.525413
O     -2.930110   -2.244374   -0.771485
H      4.036955    0.226291    0.414997
H      3.002657   -1.043104    1.173046
H      3.356234   -1.098549   -0.603444
H      1.759803    1.106638    0.854092
H      2.109734    1.051640   -0.913982
H      0.857165   -1.108016   -1.105928
H      0.505225   -1.077906    0.661640
H     -0.390313    1.144530   -1.360547
H     -1.270387    2.207767    0.566009
H     -0.646813    0.841635    1.663652
H     -3.302980    1.026105    0.259702
H     -2.669967   -0.341942    1.355646
H     -2.389550   -0.069504   -1.668669
22

C      3.232795    0.092326    0.481625
C      1.771783    0.029868    0.917038
C      0.874474   -0.461923   -0.224892
C     -0.596312   -0.544338    0.220229
C     -1.303339    0.808918    0.309481
C     -2.254362    0.383477   -0.806999
O     -3.575875    0.234523   -0.354906
O     -4.097001    1.446147   -0.366390
C     -1.545861   -0.963579   -0.901946
H      3.351679    0.795711   -0.369965
H      3.857698    0.449609    1.327091
H      3.588559   -0.915314    0.178048
H      1.684403   -0.659523    1.785001
H      1.451107    1.043622    1.240686
H      0.975497    0.216190   -1.101807
H      1.205884   -1.477191   -0.534741
H     -0.740045   -1.161607    1.135559
H     -0.672313    1.674018    0.008702
H     -1.811124    0.953160    1.288563
H     -2.158276    0.983229   -1.742472
H     -1.048191   -1.106122   -1.886912
H     -2.191179   -1.821200   -0.609053
22

C      2.742806   -0.950692   -1.365327
C      1.835369    0.086056   -0.709791
C      0.743631   -0.586606    0.130870
C     -0.159981    0.458969    0.808089
C     -1.172266    1.116912   -0.130901
C     -2.315490    0.501064    0.672775
O     -3.030767   -0.456437   -0.065276
O     -3.900220    0.223878   -0.787040
C     -1.307200   -0.160488    1.606161
H      3.522669   -0.435912   -1.965144
H      3.242270   -1.571249   -0.591042
H      2.153137   -1.608425   -2.038957
H      2.452749    0.746147   -0.062208
H      1.371405    0.709144   -1.504591
H      0.136906   -1.263439   -0.511675
H      1.223953   -1.202443    0.922485
H      0.409815    1.202008    1.410349
H     -1.128375    0.748422   -1.180036
H     -1.157103    2.225793   -0.053290
H     -2.959662    1.245469    1.197077
H     -1.338551   -1.272706    1.569255
H     -1.365094    0.244536    2.640158
20

C      2.854347   -0.367905    0.265858
C      1.920008   -0.188494   -0.672744
C      0.716742    0.694946   -0.437880
O      0.050305    0.929762   -1.658646
O      0.754540    1.842498   -2.302624
C     -0.241698    0.029277    0.577227
C     -1.564743    0.770687    0.769479
C     -2.319164   -0.441475    0.237952
C     -1.004269   -1.186348    0.046906
H      2.772105    0.112840    1.235874
H      3.713386   -0.999071    0.063102
H      2.046318   -0.671377   -1.637742
H      1.053768    1.660190    0.011140
H      0.248187   -0.180999    1.554749
H     -1.786827    0.967384    1.841227
H     -1.689766    1.666495    0.122281
H     -2.833989   -0.233266   -0.725451
H     -2.969341   -0.912003    1.007599
H     -0.803632   -1.427395   -1.020000
H     -0.916276   -2.065745    0.721692
20

C      2.524473    0.458602    1.058285
C      1.806576    0.470461   -0.068751
C      1.176602   -0.784044   -0.627973
C     -0.355714   -0.870932   -0.443447
C     -0.862864   -0.614999    0.976814
C     -1.636404    0.600605    0.479114
C     -1.148785    0.339174   -0.946512
O     -2.194540   -0.060891   -1.795673
O     -2.788600    1.051103   -2.183960
H      2.682266   -0.460641    1.613979
H      2.957357    1.379544    1.434983
H      1.665480    1.412806   -0.588448
H      1.637576   -1.686026   -0.169094
H      1.401373   -0.827838   -1.714716
H     -0.751111   -1.831128   -0.845892
H     -0.078095   -0.348698    1.715805
H     -1.538964   -1.423085    1.332521
H     -1.236176    1.552609    0.891175
H     -2.735929    0.484975    0.601900
H     -0.524523    1.158402   -1.371016
20

C      2.955811    0.286789   -0.187858
C      1.966992   -0.306588   -0.862861
C      0.832918   -1.001513   -0.159888
C     -0.079529    0.004842    0.570318
C     -1.325443   -0.643189    1.173914
C     -2.212188    0.236113    0.301429
C     -0.974761    0.885343   -0.314759
O     -0.855832    0.598764   -1.686426
O     -1.633529    1.466913   -2.303902
H      2.966419    0.293478    0.897810
H      3.766600    0.768403   -0.724588
H      1.996895   -0.312989   -1.948432
H      1.247960   -1.722829    0.577175
H      0.248923   -1.586796   -0.903467
H      0.470148    0.604012    1.330644
H     -1.439654   -0.415746    2.256435
H     -1.439715   -1.723730    0.934230
H     -2.814416    0.956008    0.897437
H     -2.810185   -0.356016   -0.426127
H     -0.867415    1.968731   -0.071989
20

C     -2.314975   -0.836108    1.252582
C     -1.687825   -0.892515    0.073927
C     -1.426949    0.345371   -0.752290
C      0.042466    0.824430   -0.744530
C      0.683720    0.971961    0.636452
C      1.708619   -0.098117    0.269193
O      3.007992    0.433097    0.221533
O      3.801570   -0.585593   -0.047191
C      1.082817   -0.231778   -1.119283
H     -2.479989   -1.744394    1.822855
H     -2.662766    0.108658    1.658984
H     -1.348113   -1.856334   -0.291698
H     -2.071578    1.183456   -0.407833
H     -1.718897    0.127599   -1.801480
H      0.168043    1.748978   -1.351563
H      0.037466    0.666261    1.485967
H      1.136715    1.977816    0.780858
H      1.613538   -1.012418    0.900917
H      0.672876   -1.246822   -1.304026
H      1.755269    0.116451   -1.934280
20

C     -2.829677   -0.233924    1.180959
C     -1.834907   -1.025831    0.770103
C     -1.031412   -0.713446   -0.462446
C     -0.137695    0.521781   -0.250567
C      1.052184    0.278464    0.678737
C      2.009607    0.538019   -0.482487
O      2.721599   -0.614450   -0.853938
O      3.743497   -0.687482   -0.023207
C      0.823690    0.778490   -1.410862
H     -3.399225   -0.493358    2.067366
H     -3.084219    0.671305    0.638119
H     -1.617934   -1.934217    1.324319
H     -1.720905   -0.530013   -1.314894
H     -0.407698   -1.598438   -0.717733
H     -0.710911    1.436327    0.021651
H      1.114556   -0.759520    1.075556
H      1.133150    1.056645    1.468556
H      2.646089    1.445325   -0.357346
H      0.752137    0.033623   -2.235078
H      0.778074    1.830700   -1.767716
18

C      3.118034    0.985407    0.593188
C      2.215553    0.326793    0.139971
C      1.115453   -0.474092   -0.412725
O      1.518852   -1.823802   -0.408787
O      1.022035   -2.378717   -1.498707
C     -0.138453   -0.303423    0.470194
C     -1.422908   -0.855568   -0.150107
C     -2.024478    0.542641   -0.155151
C     -0.742833    1.102685    0.444072
H      3.909901    1.563683    0.991182
H      0.920528   -0.091400   -1.444231
H      0.012406   -0.673573    1.509929
H     -1.304142   -1.256095   -1.180181
H     -1.962113   -1.545401    0.535301
H     -2.215895    0.921666   -1.182954
H     -2.893606    0.636054    0.532205
H     -0.230479    1.807304   -0.247884
H     -0.897857    1.515838    1.464687
18

C      2.669229   -1.185798    0.156055
C      2.019934   -0.207563   -0.117377
C      1.225637    0.986754   -0.451103
C     -0.300036    0.768173   -0.360624
C     -0.834195   -0.440116   -1.131466
C     -1.317191   -1.057974    0.176485
C     -0.791905    0.147219    0.953051
O     -1.846308    0.879575    1.522750
O     -1.277374    1.864024    2.191279
H      3.238274   -2.045011    0.396245
H      1.483365    1.305140   -1.483005
H      1.512765    1.805854    0.241177
H     -0.856225    1.695496   -0.626287
H     -1.677559   -0.170701   -1.804326
H     -0.053544   -1.053929   -1.631309
H     -2.424034   -1.163385    0.214194
H     -0.770116   -1.993030    0.427543
H     -0.000717   -0.134728    1.686727
18

C      3.479681    0.082115    0.022182
C      2.343374    0.474919   -0.065919
C      0.959964    0.952215   -0.173810
C      0.000085   -0.012337    0.546437
C     -0.219090   -1.332780   -0.194598
C     -1.701347   -1.012225   -0.336799
C     -1.496568    0.306236    0.402111
O     -1.773081    1.402796   -0.434672
O     -1.803006    2.460068    0.353558
H      4.477061   -0.263036    0.099601
H      0.696798    1.050665   -1.249113
H      0.899080    1.954284    0.299861
H      0.278405   -0.172109    1.612810
H      0.293489   -1.394858   -1.180132
H     -0.038109   -2.216773    0.455201
H     -2.006004   -0.882101   -1.398895
H     -2.344148   -1.721624    0.229038
H     -2.046583    0.324544    1.373149
18

C     -3.170883    1.577525    0.379492
C     -2.395414    0.658359    0.463464
C     -1.450802   -0.459665    0.566087
C     -0.306327   -0.291238   -0.444869
C      0.708173    0.790082   -0.069006
C      1.793289   -0.276578    0.061597
O      2.788289   -0.149406   -0.921652
O      3.624869    0.764112   -0.468490
C      0.781857   -1.356145   -0.309508
H     -3.851370    2.384605    0.305610
H     -1.994997   -1.402865    0.348795
H     -1.060182   -0.510350    1.605595
H     -0.663643   -0.194052   -1.495195
H      0.498794    1.292616    0.901064
H      0.890440    1.502371   -0.903726
H      2.189605   -0.400668    1.096756
H      0.611924   -2.074820    0.522831
H      1.006379   -1.853882   -1.278833
18

C     -1.777585    2.171944   -0.080778
C     -1.726390    0.978483   -0.243204
C     -1.663496   -0.479289   -0.441704
C     -0.272640   -1.089793   -0.163381
C      0.896207   -0.417240   -0.885318
C      1.512421   -0.052404    0.465876
O      1.519994    1.333875    0.692032
O      2.587210    1.792985    0.067607
C      0.346650   -0.724638    1.187191
H     -1.821154    3.219520    0.062126
H     -1.952217   -0.705183   -1.489656
H     -2.407450   -0.958869    0.228469
H     -0.273488   -2.190750   -0.327058
H      1.521263   -1.148732   -1.442430
H      0.613084    0.467497   -1.496898
H      2.488204   -0.551143    0.673248
H      0.670497   -1.624232    1.755000
H     -0.261111   -0.022032    1.798889
20

C      3.222514    0.521646   -0.051913
C      1.946445   -0.260926   -0.026902
C      0.779668    0.311081   -0.351608
C     -0.500955   -0.487009   -0.335140
C     -1.003615   -0.793164    1.074955
C     -2.254233    0.035886    0.812403
C     -1.755122    0.355749   -0.592894
O     -2.587469   -0.217991   -1.567828
O     -2.088775    0.158130   -2.729525
H      3.412065    0.904731   -1.076868
H      3.157432    1.374937    0.655832
H      4.068234   -0.131105    0.249571
H      1.977260   -1.308035    0.262614
H      0.761823    1.356319   -0.649911
H     -0.447227   -1.396236   -0.975644
H     -0.376593   -0.362459    1.887422
H     -1.233852   -1.871837    1.215802
H     -2.305970    0.938773    1.459535
H     -3.181766   -0.578349    0.825713
H     -1.589865    1.449860   -0.736521
20

C      3.091793   -0.228998   -0.937741
C      1.868485    0.373089   -0.319434
C      0.893095   -0.400301    0.175114
C     -0.333706    0.216444    0.808019
C     -1.373269   -0.805277    1.270307
C     -2.392383   -0.210772    0.306695
C     -1.356286    0.802836   -0.174877
O     -1.007843    0.598672   -1.522571
O     -1.941286    1.204270   -2.230903
H      2.806130   -0.857978   -1.807246
H      3.771144    0.577056   -1.285539
H      3.626730   -0.852061   -0.190188
H      1.777774    1.455371   -0.279164
H      0.999569   -1.481569    0.139585
H     -0.073422    0.930757    1.621123
H     -1.665064   -0.660463    2.333556
H     -1.130863   -1.861627    1.019932
H     -3.243116    0.273401    0.834006
H     -2.704012   -0.933529   -0.479515
H     -1.613469    1.860678    0.067934
20

C     -3.294857   -0.724075    0.295345
C     -2.059733    0.121884    0.278733
C     -0.974140   -0.255195   -0.409254
C      0.263482    0.608727   -0.429413
C      1.043250    0.581181    0.884865
C      2.233977   -0.044073    0.166022
O      3.334202    0.828949    0.146351
O      4.308043    0.164518   -0.445179
C      1.454582   -0.026065   -1.147451
H     -3.686123   -0.843725   -0.737036
H     -3.063903   -1.723191    0.721577
H     -4.073185   -0.238387    0.920268
H     -2.052825    1.053441    0.838524
H     -0.995902   -1.183960   -0.973787
H      0.060876    1.643259   -0.786464
H      0.614099   -0.101192    1.652296
H      1.249907    1.603319    1.272286
H      2.471263   -1.066692    0.542896
H      1.270684   -1.053014   -1.532761
H      1.896303    0.654292   -1.908727
20

C     -2.971552   -0.837395    1.129194
C     -1.827223    0.077667    0.821603
C     -1.013916   -0.159024   -0.215953
C      0.131787    0.773993   -0.525086
C      1.295236    0.648579    0.457623
C      2.200684    0.172855   -0.676633
O      2.597819   -1.164961   -0.516184
O      3.632580   -1.135901    0.301228
C      1.038943    0.291290   -1.657606
H     -3.672566   -0.870034    0.268539
H     -2.593036   -1.860509    1.337068
H     -3.516902   -0.467964    2.022688
H     -1.660577    0.943325    1.457269
H     -1.196093   -1.022557   -0.850689
H     -0.197357    1.827333   -0.669708
H      1.142646   -0.121085    1.247600
H      1.612926    1.635154    0.859768
H      3.037348    0.869891   -0.917842
H      0.744710   -0.683985   -2.105639
H      1.214542    1.083328   -2.418148
20

C      2.360878    0.399017   -1.052519
C      2.176640    0.162445    0.418545
C      1.039165   -0.312459    0.953305
C     -0.178672   -0.662339    0.124494
C     -1.370304   -1.147222    0.952402
C     -2.175465    0.067595    0.511562
C     -0.986770    0.562583   -0.309150
O     -1.246823    0.533943   -1.689473
O     -1.898722    1.649308   -1.955642
H      2.223284   -0.549077   -1.613323
H      1.634976    1.156843   -1.413417
H      3.387393    0.776055   -1.242794
H      3.009639    0.380812    1.080532
H      1.011680   -0.465869    2.028402
H      0.052904   -1.364780   -0.707518
H     -1.202280   -1.161326    2.051807
H     -1.796614   -2.096913    0.561177
H     -2.415278    0.747384    1.358095
H     -3.057688   -0.209019   -0.107092
H     -0.567944    1.533020    0.050607
20

C      2.527876    0.102789   -0.735529
C      1.957719   -0.953537    0.166277
C      0.763913   -0.840204    0.772391
C     -0.133824    0.370507    0.606571
C     -1.432212    0.293222    1.411685
C     -2.241220    0.353295    0.122732
C     -0.951035    0.409322   -0.692089
O     -0.781597   -0.740279   -1.485244
O     -1.483142   -0.527138   -2.581665
H      3.518968   -0.225379   -1.112537
H      1.857657    0.270130   -1.604116
H      2.659789    1.052561   -0.176250
H      2.544936   -1.850668    0.339752
H      0.447217   -1.651135    1.422127
H      0.400084    1.327185    0.801449
H     -1.589436    1.190926    2.048966
H     -1.587194   -0.664455    1.955736
H     -2.834336   -0.572074   -0.049061
H     -2.835001    1.289445    0.037464
H     -0.809162    1.365489   -1.248658
20

C     -2.787007    0.124916    0.187129
C     -1.888512   -0.063580    1.375037
C     -0.557027    0.110330    1.328333
C      0.177726    0.517074    0.068692
C      1.694581    0.614324    0.238562
C      1.878325   -0.527567   -0.758547
O      2.491939   -0.103868   -1.948922
O      3.787952   -0.104945   -1.703795
C      0.366106   -0.631905   -0.921617
H     -2.709569    1.166102   -0.190066
H     -2.512665   -0.586980   -0.618839
H     -3.839665   -0.066134    0.482981
H     -2.341926   -0.348233    2.320123
H      0.004152   -0.032014    2.247523
H     -0.242116    1.432347   -0.404704
H      2.067963    0.343115    1.250365
H      2.096510    1.584284   -0.129246
H      2.325180   -1.450503   -0.319703
H     -0.025429   -1.609011   -0.560206
H      0.013484   -0.367752   -1.943100
20

C     -2.615029   -0.834138    0.090183
C     -1.762178   -0.565494    1.296178
C     -0.606859    0.118577    1.245566
C     -0.043500    0.691729   -0.037523
C      1.302382    1.397824    0.136973
C      1.966491    0.354910   -0.755303
O      2.892221   -0.417516   -0.034487
O      3.435840   -1.237386   -0.913139
C      0.626117   -0.356420   -0.925376
H     -2.941321    0.122571   -0.368705
H     -2.050325   -1.433235   -0.654018
H     -3.516803   -1.406484    0.392412
H     -2.102731   -0.938623    2.257738
H     -0.071148    0.275958    2.177413
H     -0.772611    1.326007   -0.589036
H      1.697659    1.397812    1.177187
H      1.307536    2.407884   -0.328262
H      2.374727    0.793690   -1.695967
H      0.619820   -1.384386   -0.497730
H      0.259715   -0.313278   -1.974103
18

C      3.539082   -0.194372   -0.436966
C      2.099191    0.061853   -0.463190
C      0.912318    0.272321   -0.484197
C     -0.537302    0.529062   -0.509276
C     -1.353990   -0.717856   -0.840423
C     -1.978947   -0.679579    0.548372
C     -1.158855    0.564503    0.886874
O     -1.966577    1.702232    1.051340
O     -2.418455    1.646497    2.289383
H      3.730152   -1.184233    0.026197
H      3.934818   -0.188552   -1.473401
H      4.044552    0.595156    0.156320
H     -0.804762    1.402337   -1.144447
H     -2.100869   -0.531071   -1.642817
H     -0.747076   -1.636684   -1.004711
H     -3.075311   -0.493777    0.515964
H     -1.689515   -1.556498    1.167644
H     -0.428453    0.408663    1.717348
18

C      3.425025    0.417062   -0.557289
C      2.086211    0.009936   -0.131438
C      0.982235   -0.324689    0.218951
C     -0.368325   -0.734311    0.647263
C     -1.233686   -1.221401   -0.512695
C     -2.212819   -0.079831   -0.267015
C     -1.349668    0.418909    0.890689
O     -0.794340    1.685417    0.630143
O     -1.734950    2.559300    0.932540
H      4.154235   -0.376661   -0.294436
H      3.431402    0.576189   -1.655233
H      3.704937    1.360685   -0.045366
H     -0.340960   -1.457870    1.491181
H     -0.747248   -1.149522   -1.511596
H     -1.687808   -2.216435   -0.312054
H     -2.258878    0.629803   -1.122520
H     -3.208515   -0.439671    0.072572
H     -1.846848    0.343090    1.886314
18

C     -3.587686    0.272650   -0.590540
C     -2.234824    0.041158   -0.084753
C     -1.119452   -0.149310    0.331281
C      0.242970   -0.381674    0.838791
C      1.112345   -1.180206   -0.129769
C      2.030156    0.026477   -0.299417
O      3.309521   -0.227569    0.221863
O      4.019760    0.855253   -0.028710
C      1.158012    0.827899    0.665642
H     -3.760136   -0.357453   -1.487246
H     -3.702897    1.342054   -0.862468
H     -4.326243    0.009025    0.194239
H      0.253855   -0.791285    1.872463
H      0.602891   -1.455784   -1.080592
H      1.609460   -2.042847    0.366668
H      2.033625    0.416944   -1.344212
H      1.681752    1.095588    1.609861
H      0.676893    1.699078    0.166910
18

C     -3.295505   -0.707129   -1.086703
C     -2.098894   -0.207126   -0.410145
C     -1.112058    0.204317    0.146859
C      0.093830    0.706129    0.826444
C      0.988259   -0.412829    1.355093
C      2.088615    0.009968    0.386745
O      2.329780   -0.984230   -0.575838
O      3.326337   -0.534340   -1.313537
C      1.192919    1.127378   -0.145646
H     -3.015423   -1.535904   -1.769007
H     -3.759358    0.113102   -1.672280
H     -4.019362   -1.078014   -0.332175
H     -0.133088    1.481216    1.590711
H      0.602470   -1.439570    1.160866
H      1.279260   -0.248628    2.415701
H      3.005833    0.368051    0.910726
H      1.598960    2.134660    0.092352
H      0.927424    1.002950   -1.220154
22

C     -2.314595    0.707866    0.654575
C     -1.764315   -0.707822    0.444219
C     -1.790758   -1.215650   -0.994268
C     -0.455314   -0.894382   -0.328833
C      0.275220    0.323978   -0.926458
C      1.265756    0.942042    0.070851
C      2.479480    0.045472    0.329179
O      3.379941    0.718939    1.168099
O      4.395650   -0.104829    1.341658
H     -3.308106    0.632431    1.142878
H     -1.641944    1.274448    1.329978
H     -2.451065    1.272700   -0.290563
H     -1.955467   -1.478626    1.220844
H     -2.001420   -2.302294   -1.083811
H     -2.133957   -0.492850   -1.765537
H      0.130730   -1.804394   -0.080033
H     -0.428758    1.113213   -1.260684
H      0.823304   -0.006281   -1.834989
H      1.623577    1.909097   -0.345409
H      0.753344    1.158398    1.032563
H      2.146689   -0.897897    0.816825
H      2.972009   -0.193559   -0.641083
22

C     -2.727711   -0.404552   -0.922387
C     -1.741660    0.332803   -0.009088
C     -0.378827   -0.375679   -0.018139
C      0.648678    0.408968    0.821051
C      1.596921    1.308525    0.033626
C      2.129111    0.040677    0.696706
C      2.522028   -1.097406   -0.252811
O     -2.242405    0.358410    1.307947
O     -3.104123    1.357113    1.364964
H     -2.340203   -0.437107   -1.963071
H     -2.888145   -1.443190   -0.561703
H     -3.704510    0.123451   -0.933805
H     -1.590138    1.365833   -0.406430
H     -0.045112   -0.492367   -1.071414
H     -0.487883   -1.391625    0.419761
H      0.358457    0.790913    1.823515
H      1.869552    2.244828    0.564381
H      1.486731    1.278703   -1.071514
H      2.724740    0.201736    1.620498
H      2.097229   -2.053301    0.118240
H      3.627871   -1.188232   -0.262299
H      2.189398   -0.928502   -1.298027
22

C     -2.680851   -0.010864   -0.118588
C     -1.432725   -0.823892   -0.492020
C     -0.275283    0.083092   -0.949522
C      0.280399    0.959785    0.192766
C      1.605372    1.638677   -0.144099
C      1.561399    0.561377    0.934150
C      2.261793   -0.755151    0.576457
O     -1.015590   -1.606776    0.602163
O     -1.806828   -2.663259    0.635546
H     -3.537848   -0.695253    0.055393
H     -2.510542    0.573355    0.809510
H     -2.955108    0.681689   -0.942624
H     -1.690406   -1.471173   -1.364789
H      0.507623   -0.551750   -1.411264
H     -0.638753    0.755531   -1.756653
H     -0.409549    1.640729    0.734213
H      1.699197    2.671048    0.254322
H      2.061471    1.347983   -1.115169
H      1.624826    0.935681    1.978030
H      1.610199   -1.612151    0.841342
H      3.193156   -0.834290    1.174404
H      2.548048   -0.824388   -0.493568
22

C     -2.603976   -0.972617   -0.698299
C     -1.423416   -0.850496    0.263738
C     -0.677606    0.481533    0.086762
O     -1.537023    1.529363    0.472858
O     -1.091587    2.623296   -0.116830
C      0.566177    0.487541    1.003260
C      1.699075    1.410185    0.560355
C      1.892028   -0.102003    0.508406
C      1.983648   -0.697175   -0.902309
H     -3.343243   -0.164915   -0.512616
H     -3.105886   -1.951484   -0.547057
H     -2.252216   -0.914122   -1.750354
H     -1.797134   -0.936475    1.307891
H     -0.733343   -1.700926    0.079190
H     -0.405408    0.578111   -0.989307
H      0.416132    0.458124    2.104144
H      2.231660    1.904692    1.399876
H      1.554722    1.919515   -0.416565
H      2.543785   -0.516715    1.306602
H      1.408054   -1.643521   -0.948524
H      1.629117   -0.009693   -1.697512
H      3.046443   -0.932218   -1.117829
22

C     -2.587493   -0.767132   -0.360466
C     -1.624975    0.413105   -0.499021
C     -0.574126    0.463073    0.630673
O      0.096453    1.703391    0.603501
O     -0.682074    2.573482    1.220681
C      0.406838   -0.736049    0.519976
C      1.778091   -0.547942    1.164618
C      1.667937   -0.695674   -0.353207
C      2.003148    0.560079   -1.167106
H     -3.375951   -0.693403   -1.138882
H     -3.075439   -0.756228    0.637237
H     -2.053397   -1.729492   -0.501048
H     -1.125420    0.359934   -1.489092
H     -2.228026    1.346562   -0.479780
H     -1.094500    0.334663    1.610358
H     -0.003926   -1.752475    0.699433
H      2.011146    0.467494    1.547782
H      2.165957   -1.454895    1.674814
H      1.984322   -1.684339   -0.749077
H      2.870987    0.334711   -1.820856
H      1.151737    0.835631   -1.820726
H      2.288712    1.425505   -0.533930
22

C     -2.483698    0.996797   -0.985543
C     -1.386935    1.050680    0.077788
C     -0.843621   -0.344235    0.431771
C      0.373962   -0.738395   -0.433845
O      0.135402   -1.009346   -1.790376
O      0.387845    0.115686   -2.430694
C      1.253377   -1.818966    0.197247
C      1.825330   -0.425413   -0.045023
C      2.047234    0.439615    1.199529
H     -2.823325    2.027680   -1.219713
H     -2.112777    0.527554   -1.918619
H     -3.353401    0.416637   -0.610102
H     -0.565493    1.716784   -0.264685
H     -1.822469    1.509030    0.992368
H     -1.636562   -1.113756    0.308922
H     -0.581144   -0.349355    1.510200
H      1.643019   -2.583910   -0.508099
H      1.039829   -2.072039    1.258025
H      2.539016   -0.344285   -0.892754
H      1.585228    0.015038    2.114702
H      1.641148    1.456846    1.021894
H      3.138035    0.527354    1.382888
22

C     -2.760618    0.570966   -0.417848
C     -2.070017   -0.454564    0.480270
C     -0.769251   -1.004860   -0.126423
C      0.381359    0.023248   -0.117461
O      0.282218    1.151606   -0.947636
O      0.400350    0.698559   -2.180368
C      1.002623    0.324833    1.243719
C      1.793891   -0.469189    0.205563
C      2.967306    0.290739   -0.419347
H     -3.762296    0.808955   -0.001919
H     -2.176563    1.512545   -0.460809
H     -2.892221    0.166557   -1.443936
H     -1.870785   -0.002918    1.475916
H     -2.769472   -1.304867    0.633614
H     -0.951746   -1.348522   -1.167060
H     -0.474373   -1.904484    0.457279
H      0.630155   -0.293820    2.087911
H      1.315680    1.381207    1.389590
H      1.907701   -1.550355    0.434503
H      3.873280    0.130805    0.201169
H      2.782927    1.383771   -0.494898
H      3.159851   -0.110210   -1.435947
22

C      2.454572   -1.255798   -0.879035
C      1.880178    0.153437   -0.734214
C      0.810633    0.246985    0.362633
C     -0.503459   -0.432838   -0.068568
C     -1.784581   -0.122725    0.716266
C     -1.688356    0.828242    1.914706
C     -1.552450    0.508160   -0.654098
O     -2.334575   -0.084316   -1.651442
O     -1.720445    0.198252   -2.782540
H      3.279087   -1.242835   -1.622630
H      2.861290   -1.610688    0.091720
H      1.679183   -1.964638   -1.235055
H      1.457319    0.486600   -1.707166
H      2.713531    0.842246   -0.475421
H      1.180591   -0.235357    1.292802
H      0.658021    1.323945    0.586234
H     -0.479218   -1.456818   -0.497897
H     -2.512274   -0.961990    0.754084
H     -2.701525    0.959939    2.347582
H     -1.032910    0.382764    2.691802
H     -1.306305    1.833915    1.641536
H     -1.358308    1.603517   -0.695418
22

C      2.873113    1.012515   -0.061899
C      1.616299    0.592030    0.694459
C      0.811220   -0.441937   -0.098042
C     -0.439487   -0.866100    0.697150
C     -1.774462   -0.142046    0.475704
C     -1.828036    1.034568   -0.510636
C     -1.561720   -1.551085   -0.087940
O     -1.331647   -1.631445   -1.468397
O     -2.508745   -1.896155   -1.998049
H      3.526944    0.132899   -0.243116
H      3.437120    1.756532    0.539163
H      2.601316    1.474863   -1.034766
H      0.991875    1.491789    0.882268
H      1.914198    0.162076    1.675780
H      0.574099   -0.035068   -1.101425
H      1.437987   -1.346857   -0.251132
H     -0.295081   -1.285270    1.716219
H     -2.413580   -0.093362    1.382658
H     -2.884621    1.355493   -0.618924
H     -1.250780    1.887681   -0.099085
H     -1.450047    0.796989   -1.524374
H     -2.045966   -2.408109    0.430264
22

C      2.688621    0.337728   -0.156370
C      1.445517    0.035134   -0.992453
C      0.534511   -1.011704   -0.336934
C     -0.116075   -0.477532    0.951980
C     -1.472986   -1.094049    1.295169
C     -1.391706    0.361436    0.844070
C     -2.076558    0.679865   -0.493016
O     -1.601216    1.263315    1.896307
O     -0.829474    2.298568    1.629687
H      3.350582    1.031028   -0.716753
H      2.407937    0.823742    0.801188
H      3.251904   -0.596182    0.053998
H      1.774131   -0.351738   -1.981299
H      0.882307    0.975994   -1.169093
H      1.132539   -1.912416   -0.080412
H     -0.219567   -1.341053   -1.080967
H      0.522010   -0.290729    1.842244
H     -1.871778   -1.816282    0.550671
H     -1.634537   -1.239029    2.384772
H     -3.108111    1.039037   -0.295970
H     -1.519083    1.485379   -1.013295
H     -2.148967   -0.200511   -1.163153
22

C      3.175100    0.283500   -0.327209
C      1.803322    0.557087    0.282366
C      0.903100   -0.678664    0.198556
C     -0.468148   -0.382062    0.824858
C     -1.536343   -1.425741    0.496642
C     -1.629534   -0.028143   -0.105306
C     -2.778876    0.832148    0.428088
O     -1.390550   -0.024013   -1.488485
O     -0.910979    1.172858   -1.763131
H      3.805569    1.194034   -0.247298
H      3.073736    0.014998   -1.400400
H      3.679000   -0.546160    0.213026
H      1.331483    1.404726   -0.259467
H      1.934849    0.852163    1.346428
H      1.371178   -1.508758    0.770706
H      0.815167   -1.007247   -0.860131
H     -0.521252   -0.004960    1.869138
H     -1.225773   -2.223169   -0.213131
H     -2.229086   -1.636801    1.339374
H     -2.902768    0.714306    1.526072
H     -2.574693    1.901485    0.213127
H     -3.724501    0.538414   -0.073453
22

C      2.847164   -0.418151    0.751074
C      1.818961   -0.216907   -0.358232
C      0.719450    0.757126    0.074725
C     -0.295399    0.956684   -1.063956
C     -1.639730    1.523662   -0.618288
C     -1.557163    0.090731   -1.138296
C     -1.770465   -1.012949   -0.092011
O     -3.014246   -1.617646   -0.324758
O     -3.116969   -2.587310    0.564062
H      2.361038   -0.843261    1.654996
H      3.632890   -1.122869    0.406168
H      3.327188    0.548937    1.012535
H      1.372197   -1.200726   -0.616610
H      2.335293    0.179505   -1.259804
H      1.179227    1.744573    0.295741
H      0.248571    0.400123    1.013455
H      0.061875    1.375385   -2.029390
H     -2.088511    2.239386   -1.338970
H     -1.771418    1.644740    0.478556
H     -1.942411   -0.062368   -2.169290
H     -0.960543   -1.766229   -0.210786
H     -1.746999   -0.612436    0.945929
22

C     -3.308940   -0.158855    0.819218
C     -2.036610   -0.611642    0.103322
C     -1.594039    0.284791   -1.048140
C     -0.832059    0.306846    0.273807
C      0.527442   -0.403731    0.261968
C      1.631987    0.568596   -0.162620
C      3.000770   -0.110993   -0.156806
O      3.978910    0.814819   -0.549119
O      5.124657    0.161590   -0.520497
H     -4.192708   -0.546535    0.271349
H     -3.315520   -0.577613    1.846807
H     -3.388523    0.947948    0.886221
H     -1.838973   -1.696020   -0.039180
H     -1.096414   -0.256118   -1.881244
H     -2.215179    1.188588   -1.225962
H     -0.978605    1.214629    0.898841
H      0.523411   -1.282222   -0.421812
H      0.734048   -0.771697    1.290019
H      1.418361    0.947033   -1.186528
H      1.653286    1.434443    0.535465
H      3.219623   -0.483184    0.870331
H      2.985075   -0.970673   -0.865442
22

C     -2.928994    0.689388   -0.424586
C     -1.595926    0.407827    0.277419
C     -0.747485   -0.556376   -0.564429
C      0.621260   -0.790618    0.091612
C      1.724470   -1.235301   -0.864034
C      1.717083    0.187576   -0.315914
C      2.761800    0.473484    0.762126
O     -1.835603   -0.168323    1.540929
O     -2.103841    0.827519    2.365284
H     -2.751038    1.134491   -1.426824
H     -3.511535   -0.249473   -0.542097
H     -3.529112    1.408713    0.171657
H     -1.030737    1.367056    0.369120
H     -0.633647   -0.145734   -1.593154
H     -1.267535   -1.535316   -0.647984
H      0.681358   -1.237674    1.107814
H      2.469553   -1.922983   -0.409739
H      1.437364   -1.309735   -1.934668
H      1.446627    0.978949   -1.047848
H      2.414069    1.321385    1.387908
H      3.717988    0.758181    0.276215
H      2.943881   -0.403036    1.421192
22

C     -3.074179    0.377115   -0.534135
C     -1.808156   -0.375752   -0.110196
C     -0.626085    0.598260    0.002849
C      0.668217   -0.150153    0.355475
C      1.460313   -0.684720   -0.834245
C      1.951692    0.546934   -0.081387
C      3.162940    0.309310    0.820174
O     -2.018464   -0.995876    1.137616
O     -2.658451   -2.124950    0.895080
H     -2.915484    0.879016   -1.512484
H     -3.921208   -0.332647   -0.642963
H     -3.344542    1.140724    0.226409
H     -1.557505   -1.125703   -0.899159
H     -0.516503    1.159900   -0.952347
H     -0.829821    1.339049    0.806229
H      0.723153   -0.760303    1.283234
H      2.004291   -1.630626   -0.625394
H      1.030874   -0.465661   -1.835162
H      1.852822    1.507541   -0.631506
H      3.144948   -0.692444    1.301791
H      3.181579    1.084138    1.614264
H      4.089567    0.396849    0.215856
22

C     -2.896678   -0.944463    0.344466
C     -1.389381   -0.708898    0.436732
C     -0.902143    0.300341   -0.621750
O     -1.529629    1.543905   -0.402554
O     -1.464166    2.206778   -1.542773
C      0.640301    0.486720   -0.685680
C      1.231008    1.264559    0.492203
C      1.564238   -0.209739    0.319490
C      2.983676   -0.481336   -0.178523
H     -3.451569   -0.003070    0.542550
H     -3.201096   -1.697629    1.101529
H     -3.168239   -1.326021   -0.662816
H     -1.152934   -0.338332    1.457457
H     -0.881484   -1.685445    0.280460
H     -1.211145   -0.115929   -1.610461
H      1.080248    0.801479   -1.656950
H      2.036432    1.977408    0.212554
H      0.541210    1.470162    1.338251
H      1.147587   -0.855075    1.118625
H      3.025190   -1.500960   -0.614256
H      3.687236   -0.432161    0.678433
H      3.311337    0.247708   -0.951106
22

C     -2.886626   -0.752377   -0.791282
C     -1.452155   -0.253099   -0.956223
C     -0.884883    0.301836    0.359286
O     -1.627163    1.438717    0.733553
O     -1.434553    1.605695    2.028812
C      0.586318    0.703862    0.142979
C      1.485899    0.595384    1.371971
C      1.593891   -0.436112    0.255603
C      2.828890   -0.300885   -0.634384
H     -3.556901    0.080298   -0.490029
H     -3.248964   -1.164544   -1.756572
H     -2.930576   -1.555157   -0.024773
H     -1.430666    0.536379   -1.739507
H     -0.824158   -1.102170   -1.305089
H     -0.973003   -0.503510    1.129915
H      0.836379    1.531805   -0.555883
H      2.297642    1.353007    1.408982
H      1.004506    0.208981    2.295462
H      1.197792   -1.444829    0.502335
H      3.677185   -0.840479   -0.164628
H      2.616449   -0.761645   -1.621296
H      3.124697    0.758845   -0.793352
22

C      2.614846    0.078332   -1.170952
C      2.044374    0.277109    0.233089
C      0.935352   -0.728979    0.569077
C     -0.346702   -0.449687   -0.237351
C     -1.330937    0.511736    0.426802
C     -2.113543    1.400921   -0.537332
C     -1.665277   -0.973973    0.337421
O     -1.535431   -1.654297    1.554829
O     -2.735390   -1.618694    2.097901
H      3.472011    0.767870   -1.321566
H      2.974142   -0.964711   -1.300078
H      1.849993    0.303819   -1.942426
H      1.658870    1.315029    0.335162
H      2.870577    0.150246    0.965912
H      1.282410   -1.761299    0.348742
H      0.746722   -0.671546    1.663535
H     -0.310221   -0.449374   -1.347665
H     -1.068871    0.892031    1.438072
H     -2.336273    0.890382   -1.499441
H     -3.071583    1.697614   -0.062360
H     -1.522067    2.315779   -0.748564
H     -2.413003   -1.328309   -0.406925
22

C      2.567717   -0.447162   -0.937712
C      2.045051    0.024550    0.418838
C      0.783939   -0.730167    0.859688
C     -0.422254   -0.385858   -0.026412
C     -1.184284    0.878639    0.367324
C     -1.789516    1.655292   -0.805334
C     -1.773045   -0.498423    0.676460
O     -2.821040   -0.876427   -0.172564
O     -2.886554   -2.188653   -0.073536
H      2.749753   -1.542802   -0.923838
H      3.525386    0.067409   -1.163449
H      1.844345   -0.202965   -1.743217
H      1.839268    1.116400    0.378485
H      2.840124   -0.141710    1.177608
H      0.964215   -1.825583    0.811687
H      0.582320   -0.477690    1.924616
H     -0.428868   -0.686132   -1.096725
H     -0.801471    1.436976    1.248637
H     -2.006650    1.010233   -1.683655
H     -2.731159    2.140373   -0.474462
H     -1.076066    2.444445   -1.120925
H     -1.821211   -0.770742    1.754367
22

C      3.290617    0.032046   -0.818029
C      1.869889   -0.482507   -0.606021
C      1.107764    0.390278    0.394514
C     -0.307430   -0.161472    0.607068
C     -1.319854    0.854911    1.126231
C     -1.375255    0.396586   -0.327529
C     -2.509149   -0.573006   -0.665961
O     -3.654519    0.164486   -0.997841
O     -4.575211   -0.724450   -1.317928
H      3.851940    0.021283    0.140555
H      3.817551   -0.620727   -1.545467
H      3.270135    1.067454   -1.220032
H      1.917749   -1.528237   -0.230777
H      1.337086   -0.483000   -1.582090
H      1.085958    1.440974    0.027161
H      1.635620    0.379479    1.372446
H     -0.447273   -1.194911    0.992606
H     -0.941713    1.891048    1.259452
H     -2.093983    0.424528    1.796935
H     -1.046179    1.146661   -1.079054
H     -2.184745   -1.185404   -1.536885
H     -2.728998   -1.256019    0.187496
20

C     -2.036274    0.673365    0.468989
C     -1.523255   -0.021036   -0.797866
C     -1.482104   -1.545848   -0.748360
C     -0.178852   -0.751712   -0.744346
C      0.609616   -0.804296    0.576767
C      1.376585    0.467119    0.790071
C      2.389779    0.816196   -0.000965
O      3.083263    1.997324    0.239292
O      4.102250    2.355217   -0.551615
H     -3.063836    1.046315    0.278705
H     -2.081343    0.001417    1.350664
H     -1.389196    1.543997    0.702258
H     -1.772754    0.414718   -1.788693
H     -1.771106   -2.012794    0.217647
H     -1.710099   -2.033523   -1.719520
H      0.378943   -0.793299   -1.704500
H      1.321075   -1.656477    0.531523
H     -0.043915   -0.983729    1.455242
H      1.111855    1.102364    1.626767
H      2.679367    0.184684   -0.832968
20

C     -2.230912    0.698043    0.918534
C     -2.063188   -0.049963   -0.409467
C     -1.405888   -1.424958   -0.321385
C     -0.648463   -0.261218   -0.954119
C      0.540161    0.282294   -0.141913
C      1.832083   -0.281673   -0.661061
C      3.009994    0.076348   -0.150205
O      3.090827    0.995840    0.892125
O      4.281507    1.344847    1.394436
H     -3.305991    0.700800    1.193156
H     -1.899887    1.750246    0.795524
H     -1.670707    0.232370    1.755774
H     -2.848430    0.052148   -1.188623
H     -1.055631   -1.740735    0.684623
H     -1.794205   -2.159537   -1.057805
H     -0.586379   -0.280929   -2.063854
H      0.558838    1.387895   -0.250236
H      0.460060    0.036225    0.938079
H      1.818388   -1.002165   -1.471041
H      3.917821   -0.355879   -0.553448
20

C      2.689340   -1.137200    0.281412
C      1.925916   -0.045215    0.400190
C      0.702825    0.122023   -0.453500
C     -0.497477   -0.567174    0.217304
C     -1.438242    0.349947    0.993532
C     -1.900948   -0.276436   -0.319353
C     -2.045346    0.685170   -1.504880
O      2.222484    0.950868    1.336723
O      3.288169    0.870468    2.146259
H      3.567421   -1.277781    0.897288
H      2.442519   -1.911103   -0.434900
H      0.866931   -0.333427   -1.454373
H      0.535682    1.208439   -0.609178
H     -0.372892   -1.587292    0.641092
H     -1.876918   -0.120982    1.898252
H     -1.192786    1.433145    0.963599
H     -2.619062   -1.117821   -0.217028
H     -3.124928    0.839772   -1.709453
H     -1.580767    0.233967   -2.406202
H     -1.591919    1.680632   -1.317692
20

C      2.292168    1.435817    0.788051
C      2.075660    0.151857    0.484660
C      0.960135   -0.278836   -0.431502
O      1.481253   -1.244430   -1.312028
O      0.642310   -1.324694   -2.327471
C     -0.156797   -0.915068    0.424591
C     -0.989140    0.074641    1.237920
C     -1.633870   -0.683575    0.083016
C     -2.020907    0.183893   -1.120794
H      1.680564    2.225637    0.362763
H      3.089369    1.703362    1.473833
H      2.690942   -0.609349    0.956504
H      0.610735    0.610962   -1.002246
H      0.065721   -1.857055    0.971228
H     -1.276870   -0.299560    2.243015
H     -0.764270    1.148249    1.059599
H     -2.317372   -1.503441    0.390567
H     -1.541314    1.184527   -1.118915
H     -1.769545   -0.346862   -2.060970
H     -3.118775    0.343925   -1.101820
20

C      2.836744    0.008712    0.821308
C      2.106774    0.710270   -0.051631
C      0.737790    0.248506   -0.491203
O      0.319778    1.024151   -1.591405
O      0.936206    0.537324   -2.653032
C     -0.255930    0.390257    0.692731
C     -1.637748    0.995469    0.426391
C     -1.506676   -0.498867    0.684824
C     -1.804969   -1.380835   -0.533743
H      3.823388    0.357298    1.108517
H      2.457063   -0.912622    1.252841
H      2.525996    1.619201   -0.474370
H      0.811839   -0.829866   -0.768608
H      0.139536    0.570212    1.716535
H     -2.059362    1.558068    1.285854
H     -1.890012    1.274099   -0.618116
H     -1.868741   -0.824950    1.683213
H     -1.564514   -0.888135   -1.499127
H     -1.222358   -2.321887   -0.454212
H     -2.884805   -1.636404   -0.536767
20

C      2.614974    1.085717   -0.145523
C      1.883667    0.328595   -0.968576
C      1.136713   -0.881686   -0.480948
C     -0.098618   -0.475223    0.341116
O      0.101713    0.183780    1.565640
O      0.548781   -0.737221    2.396741
C     -1.345610   -1.353807    0.265249
C     -1.315059   -0.005939   -0.456170
C     -2.185613    1.084481    0.174589
H      3.153109    1.944598   -0.533001
H      2.688267    0.853465    0.912352
H      1.852818    0.575101   -2.025825
H      0.832837   -1.485283   -1.363838
H      1.807672   -1.516873    0.136151
H     -1.263345   -2.231625   -0.410013
H     -1.945026   -1.391160    1.200222
H     -1.242065   -0.071176   -1.563198
H     -1.726804    2.075243   -0.023785
H     -3.191566    1.059673   -0.293143
H     -2.306848    0.959339    1.271959
20

C      2.451723    0.669837    0.818986
C      1.649318    0.813092   -0.239639
C      0.904334   -0.352567   -0.832449
C     -0.202267   -0.914897    0.096926
O     -0.156865   -2.289520    0.373175
O      0.804672   -2.441016    1.262510
C     -0.890335   -0.056957    1.164868
C     -1.641934   -0.423095   -0.110145
C     -1.914883    0.773677   -1.028737
H      2.984568    1.527608    1.216009
H      2.582932   -0.297032    1.294240
H      1.552148    1.790682   -0.702237
H      0.480789   -0.059595   -1.815084
H      1.636820   -1.158954   -1.052762
H     -1.231191   -0.617465    2.061155
H     -0.557177    0.999489    1.239368
H     -2.448837   -1.172003    0.042573
H     -1.122925    1.550590   -0.978216
H     -2.003510    0.416768   -2.075665
H     -2.877381    1.241357   -0.734875
20

C      3.127996    0.297317    0.174575
C      2.173532   -0.324149   -0.524595
C      0.850555   -0.685290    0.089362
C      0.027890    0.587341    0.379059
C     -1.481997    0.448686    0.612683
C     -2.104924   -0.954473    0.556628
C     -0.959480    1.068518   -0.688088
O     -1.021221    0.252552   -1.825799
O     -2.139949    0.593517   -2.432663
H      2.970846    0.571976    1.213276
H      4.078238    0.532249   -0.293708
H      2.369763   -0.602477   -1.555936
H      1.023637   -1.227419    1.043624
H      0.336194   -1.386434   -0.597584
H      0.496674    1.396181    0.979998
H     -1.891514    1.174980    1.346502
H     -1.906302   -1.500799   -0.386523
H     -1.728169   -1.556973    1.409183
H     -3.205385   -0.857804    0.660373
H     -1.016384    2.172502   -0.811270
20

C      2.755641    0.991494    0.081109
C      1.914898    0.444259    0.964038
C      1.131149   -0.797507    0.645877
C      0.088594   -0.514899   -0.447642
C     -1.078115   -1.503131   -0.473402
C     -1.306078   -0.068668   -0.008600
C     -2.145564    0.796239   -0.953374
O     -1.564135    0.017721    1.368417
O     -1.135605    1.209170    1.736019
H      3.317297    1.881383    0.345817
H      2.890948    0.557503   -0.904957
H      1.816226    0.892304    1.948380
H      0.660159   -1.172145    1.580403
H      1.824430   -1.588279    0.287293
H      0.425648   -0.188688   -1.455271
H     -1.081775   -2.265329    0.335772
H     -1.438359   -1.742413   -1.496865
H     -1.969278    1.869170   -0.731707
H     -3.221835    0.569859   -0.803724
H     -1.884248    0.611955   -2.017585
20

C      2.862203    0.824158   -0.167150
C      1.663501    1.056693    0.375891
C      0.800352   -0.057964    0.896199
C      0.314420   -0.954486   -0.257353
C     -0.927662   -1.769509    0.081013
C     -1.013784   -0.658018   -0.966976
C     -1.755084    0.645708   -0.605955
O     -2.527396    0.504474    0.558442
O     -3.091088    1.679549    0.762499
H      3.247338   -0.186811   -0.259741
H      3.467695    1.652191   -0.520969
H      1.316307    2.081240    0.471564
H     -0.041528    0.378175    1.474004
H      1.391744   -0.676542    1.604915
H      1.064922   -1.523831   -0.846988
H     -1.365542   -1.570702    1.081753
H     -0.917236   -2.794376   -0.346309
H     -1.036934   -1.002540   -2.023010
H     -2.424849    0.892050   -1.459893
H     -1.027381    1.480539   -0.502843
20

C     -2.658897    1.077208    0.875931
C     -1.792843    0.031790    0.173273
C     -0.974873    0.559417   -0.999575
C     -0.287849    0.224519    0.321770
C      0.514905   -1.082390    0.348516
C      1.973386   -0.809959    0.129635
C      2.442853   -0.429261   -1.063223
O      3.800600   -0.183542   -1.283460
O      4.711197   -0.311720   -0.307913
H     -2.861972    0.741652    1.913960
H     -3.624504    1.171831    0.337249
H     -2.172873    2.076289    0.914246
H     -2.166776   -1.008522    0.057169
H     -0.834012   -0.176284   -1.819727
H     -1.060910    1.648753   -1.199926
H      0.038139    1.089951    0.939245
H      0.154470   -1.817361   -0.405357
H      0.387150   -1.543317    1.350991
H      2.652009   -0.954557    0.960820
H      1.760800   -0.304498   -1.894529
20

C     -2.649328    0.996210    0.390514
C     -1.746451   -0.227031    0.232420
C     -1.180870   -0.430833   -1.168983
C     -0.279496    0.078739   -0.047999
C      0.713439   -0.947983    0.514162
C      1.974864   -0.964759   -0.300242
C      2.867849    0.026011   -0.268624
O      2.670443    1.148563    0.530763
O      3.577219    2.133030    0.549134
H     -2.657587    1.305651    1.456129
H     -2.311672    1.856989   -0.226667
H     -3.683162    0.727038    0.090128
H     -1.979374   -1.160724    0.788483
H     -1.039785   -1.495624   -1.452934
H     -1.450435    0.343664   -1.918524
H      0.002562    1.152133   -0.110957
H      0.949422   -0.689942    1.568736
H      0.279673   -1.972375    0.514754
H      2.179169   -1.830919   -0.917793
H      3.763519   -0.047837   -0.873409
20

C      2.351666    1.786859   -0.073720
C      1.709288    0.920444   -0.864827
C      1.134692   -0.343743   -0.295256
C     -0.253705   -0.069676    0.294434
C     -1.415948   -0.182639   -0.688003
C     -1.179402   -1.279666    0.344468
C     -2.171639   -1.294271    1.507047
O      1.527982    1.176843   -2.228097
O      1.998314    2.289008   -2.810653
H      2.473091    1.586836    0.983761
H      2.761964    2.707551   -0.466248
H      1.098239   -1.116060   -1.095168
H      1.793415   -0.738909    0.508368
H     -0.375524    0.688431    1.098722
H     -1.142256   -0.467855   -1.726282
H     -2.256475    0.511734   -0.474361
H     -0.793474   -2.238295   -0.064581
H     -3.073606   -1.867896    1.208871
H     -2.484244   -0.272099    1.812483
H     -1.702376   -1.796596    2.378135
20

C      2.639265    1.004388    0.121740
C      2.023229   -0.161070    0.342731
C      0.980394   -0.700090   -0.606069
O      0.699331   -2.045758   -0.288343
O      1.695228   -2.763844   -0.774598
C     -0.285769    0.181968   -0.524100
C     -1.595358   -0.465703   -0.969496
C     -1.336312   -0.206548    0.512809
C     -2.119826    0.961824    1.110427
H      2.399237    1.607225   -0.748817
H      3.393389    1.360224    0.816083
H      2.302081   -0.744302    1.215956
H      1.359657   -0.622263   -1.652860
H     -0.206402    1.260846   -0.781829
H     -1.543797   -1.535744   -1.260458
H     -2.303912    0.234067   -1.462258
H     -1.148177   -1.110962    1.129294
H     -2.252752    1.798222    0.390320
H     -3.120951    0.604098    1.428651
H     -1.578557    1.343421    2.000818
20

C      2.381432    1.079038    0.757293
C      2.278503    0.566426   -0.472532
C      1.274709   -0.501457   -0.801441
C     -0.150514    0.072402   -0.762933
C     -0.937950   -0.213725    0.515258
C     -1.917998    0.882459    0.927833
C     -1.300203   -0.937827   -0.776902
O     -0.888871   -2.276612   -0.803857
O     -1.924118   -2.962910   -0.364136
H      3.124234    1.841695    0.966999
H      1.731517    0.743382    1.559538
H      2.954353    0.912985   -1.248835
H      1.409414   -1.357715   -0.104167
H      1.472636   -0.869193   -1.830563
H     -0.371904    1.022875   -1.295963
H     -0.443424   -0.832259    1.295389
H     -2.365131    1.402875    0.053082
H     -1.385017    1.629263    1.552101
H     -2.734803    0.432697    1.529477
H     -2.206864   -0.634400   -1.346549
20

C      2.420146    1.220600   -0.231623
C      2.349002    0.015671   -0.805086
C      1.428263   -1.052652   -0.288333
C     -0.033525   -0.681040   -0.566213
C     -1.051389   -1.511210    0.210262
C     -0.794958   -0.060081    0.600500
C     -1.890427    0.930184    0.201579
O     -2.858322    0.970742    1.215210
O     -3.745150    1.868575    0.830806
H      1.803504    1.469558    0.626396
H      3.103868    1.967551   -0.621455
H      2.992047   -0.206170   -1.651714
H      1.623980   -1.220202    0.794227
H      1.651511   -2.001536   -0.820654
H     -0.352534   -0.419196   -1.598754
H     -0.628707   -2.251376    0.923081
H     -1.998443   -1.702091   -0.338458
H     -0.237231    0.086135    1.550699
H     -2.363626    0.645263   -0.766979
H     -1.418009    1.931276    0.085602
18

C      3.344877   -0.135472    0.877017
C      2.229418    0.193028    0.558450
C      0.868702    0.593760    0.171371
O      0.932193    1.710933   -0.681314
O      1.110784    2.767227    0.091157
C      0.217417   -0.569908   -0.596051
C     -0.635437   -1.521284    0.239704
C     -1.304586   -0.587180   -0.765139
C     -2.126155    0.559836   -0.164364
H      4.323915   -0.423961    1.156561
H      0.305077    0.828113    1.103250
H      0.776244   -1.050363   -1.428829
H     -0.749059   -1.254868    1.312360
H     -0.583021   -2.579372   -0.092691
H     -1.661178   -1.072915   -1.698398
H     -1.887074    1.505051   -0.694345
H     -3.203896    0.341585   -0.312808
H     -1.958222    0.695790    0.924069
18

C      3.526529   -0.103576    0.522091
C      2.354520    0.153753    0.404261
C      0.925176    0.468891    0.260311
O      0.441387    0.970418    1.484667
O      0.786961    2.244109    1.534852
C      0.174453   -0.818682   -0.160750
C     -1.098209   -1.214166    0.594297
C     -1.202309   -0.654848   -0.818033
C     -1.837539    0.738014   -0.908817
H      4.555164   -0.329582    0.625550
H      0.826590    1.217782   -0.559592
H      0.751913   -1.666479   -0.591792
H     -1.455763   -0.538161    1.398754
H     -1.268647   -2.309918    0.650565
H     -1.454472   -1.409392   -1.593516
H     -1.414267    1.275923   -1.782206
H     -2.930532    0.624720   -1.063380
H     -1.680955    1.351195    0.002740
18

C      2.836515   -0.190652    1.500325
C      2.201440   -0.449395    0.508667
C      1.431100   -0.766457   -0.703766
C     -0.024919   -0.245796   -0.690383
O     -0.868389   -0.725685   -1.704138
O     -1.193447   -1.950861   -1.341185
C     -0.156682    1.269450   -0.523434
C     -0.693060    0.338800    0.561828
C     -2.220446    0.263026    0.639772
H      3.393236    0.036907    2.370988
H      1.959280   -0.341438   -1.583022
H      1.418251   -1.870130   -0.818762
H      0.766328    1.811310   -0.226190
H     -0.925200    1.751521   -1.165923
H     -0.110606    0.339601    1.506281
H     -2.711454    0.397921   -0.347650
H     -2.514438   -0.724062    1.052725
H     -2.587511    1.055938    1.323878
18

C      3.369299    0.761768   -0.546652
C      2.198353    0.527436   -0.711804
C      0.773617    0.242740   -0.912520
C      0.201013   -0.505433    0.306641
O      0.901844   -1.630478    0.767935
O      0.646600   -2.586471   -0.103504
C     -0.325432    0.368868    1.440934
C     -1.293882   -0.498338    0.634802
C     -2.220945    0.245450   -0.331515
H      4.397178    0.967327   -0.401362
H      0.658694   -0.391956   -1.815572
H      0.254036    1.204840   -1.097362
H     -0.122229   -0.018797    2.461894
H     -0.360213    1.459484    1.231519
H     -1.667842   -1.407829    1.152323
H     -2.198259   -0.252543   -1.323255
H     -3.258049    0.198035    0.060100
H     -1.953784    1.315896   -0.452593
18

C      3.546437    0.514376    0.432236
C      2.391583    0.660740    0.118778
C      0.987860    0.838958   -0.261274
C      0.354990   -0.535190   -0.545691
C     -1.173659   -0.629792   -0.633135
C     -1.999694    0.649575   -0.430791
C     -0.436119   -1.217701    0.574531
O     -0.513550   -0.476191    1.761195
O     -1.503195   -1.018653    2.441217
H      4.560147    0.385652    0.707436
H      0.948527    1.447854   -1.188305
H      0.483230    1.406166    0.545390
H      0.881752   -1.227053   -1.238422
H     -1.538207   -1.378631   -1.367990
H     -1.842045    1.326676   -1.295882
H     -3.074402    0.375899   -0.395567
H     -1.763785    1.198510    0.502144
H     -0.309869   -2.321196    0.634140
18

C      3.696063   -0.411578    0.402083
C      2.571961   -0.628075    0.024067
C      1.205814   -0.890911   -0.436093
C      0.213505   -0.067723    0.394851
C     -0.125664    1.311026   -0.173884
C     -1.159024    0.190299   -0.226162
C     -2.372456    0.381519    0.688159
O     -1.385651   -0.275126   -1.530825
O     -1.716042   -1.545031   -1.401370
H      4.682731   -0.221357    0.734060
H      1.147468   -0.659860   -1.521341
H      0.984473   -1.969197   -0.295017
H      0.235713   -0.134182    1.504464
H      0.351997    1.558679   -1.146461
H     -0.288064    2.084711    0.606693
H     -2.874921   -0.594750    0.848760
H     -2.078395    0.790892    1.678476
H     -3.089508    1.080663    0.209549
18

C      3.047996    0.939975    0.315489
C      2.170144    0.144113    0.537374
C      1.101525   -0.821550    0.807298
C      0.294438   -1.076359   -0.474189
C     -1.160895   -1.473964   -0.245121
C     -0.834668   -0.119443   -0.869190
C     -1.103072    1.109526    0.011107
O     -2.235887    1.774947   -0.479344
O     -2.381915    2.845859    0.277324
H      3.818292    1.638884    0.120424
H      0.484401   -0.454851    1.652168
H      1.565227   -1.778142    1.125913
H      0.782422   -1.612723   -1.316453
H     -1.543523   -2.222611   -0.970428
H     -1.508829   -1.457540    0.810079
H     -1.005992   -0.046535   -1.964699
H     -1.272723    0.830342    1.074698
H     -0.216940    1.780072   -0.052439
18

C      3.139422   -0.822037   -0.346580
C      2.257310   -0.094455    0.035644
C      1.181590    0.792765    0.501323
O      1.024385    1.861955   -0.404501
O      1.984070    2.728537   -0.135980
C     -0.108833   -0.037872    0.647855
C     -1.415072    0.753305    0.664957
C     -1.049952   -0.091382   -0.553227
C     -1.842972   -1.389983   -0.697996
H      3.913507   -1.460801   -0.682202
H      1.442525    1.166610    1.518597
H     -0.106115   -0.916264    1.330308
H     -1.329440    1.848162    0.501422
H     -2.196817    0.326080    1.328991
H     -0.768639    0.480956   -1.462353
H     -2.796995   -1.177460   -1.223517
H     -1.254420   -2.108300   -1.305478
H     -2.073556   -1.859816    0.282739
18

C      3.549586   -0.317876    0.120307
C      2.410397   -0.596819    0.399135
C      1.025386   -0.936348    0.736515
C      0.104034    0.241422    0.394381
C     -1.345031   -0.151059    0.110627
C     -2.391499    0.863470    0.570568
C     -0.450961    0.322336   -1.030821
O     -0.079752   -0.725852   -1.882537
O      0.925499   -0.253544   -2.591439
H      4.549443   -0.072788   -0.124818
H      0.742808   -1.870689    0.206002
H      0.963601   -1.130532    1.827429
H      0.258097    1.218683    0.901698
H     -1.590891   -1.235490    0.120512
H     -2.029240    1.911732    0.493955
H     -3.302012    0.755767   -0.054578
H     -2.658715    0.656049    1.627428
H     -0.680750    1.321537   -1.464355
18

C      3.846174   -0.428245   -0.192698
C      2.806355    0.170493   -0.075776
C      1.542517    0.898291    0.067152
C      0.371336   -0.025076   -0.280102
C     -0.191205   -0.836537    0.883661
C     -0.960402    0.367782    0.350186
C     -2.200208    0.031506   -0.481263
O     -3.294906   -0.131657    0.379574
O     -4.331745   -0.376598   -0.398438
H      4.758807   -0.954065   -0.295318
H      1.543239    1.756633   -0.636337
H      1.472914    1.295950    1.102990
H      0.327864   -0.516902   -1.276584
H     -0.586626   -1.832602    0.590864
H      0.293670   -0.666292    1.868613
H     -0.965085    1.260090    1.013240
H     -2.047412   -0.894042   -1.083980
H     -2.385287    0.881269   -1.175772
20

C     -2.095480    1.320049   -0.465748
C     -2.104794    0.210386    0.592321
C     -1.708137   -1.167775    0.079375
C     -0.772037   -0.409172    1.017814
C      0.484171    0.096261    0.360021
C      1.440839   -0.752363   -0.039075
C      2.705659   -0.256429   -0.673060
O      3.428220    0.506596    0.256163
O      4.512618    0.910892   -0.376833
H     -3.115377    1.420665   -0.891151
H     -1.390291    1.118508   -1.300244
H     -1.817839    2.280546    0.015734
H     -2.897020    0.209825    1.370805
H     -2.253104   -2.004402    0.565239
H     -1.387839   -1.219288   -0.984311
H     -0.720237   -0.830859    2.043990
H      0.635256    1.167840    0.262538
H      1.298446   -1.823410    0.079045
H      3.309046   -1.134191   -0.996700
H      2.447901    0.356322   -1.566829
20

C      2.752308   -0.648713    0.622835
C      1.644291    0.222552    0.100308
C      0.550878   -0.327990   -0.440895
C     -0.556025    0.512704   -1.017496
C     -1.392499    1.250202    0.026143
C     -1.999997    0.085488   -0.744394
C     -2.251027   -1.176703    0.089165
O      1.766877    1.614149    0.145984
O      2.864764    2.202156    0.639998
H      2.401006   -1.684114    0.822298
H      3.142209   -0.232847    1.575119
H      3.574783   -0.683590   -0.121469
H      0.476667   -1.405409   -0.529102
H     -0.374209    1.092722   -1.947120
H     -1.125885    1.049045    1.086867
H     -1.749712    2.247708   -0.306065
H     -2.735359    0.374712   -1.524939
H     -1.568724   -1.263906    0.961606
H     -3.294355   -1.157452    0.466502
H     -2.125991   -2.070713   -0.556253
20

C      2.512064   -1.361708   -0.337180
C      1.250850   -0.650196   -0.713932
C      0.840079    0.450679   -0.073596
O      1.631075    0.990094    0.946132
O      1.359039    2.184703    1.488251
C     -0.431623    1.139242   -0.511890
C     -1.400158    1.501663    0.613040
C     -1.759338    0.386233   -0.357023
C     -1.771477   -1.010258    0.277009
H      3.382468   -0.682705   -0.457840
H      2.452614   -1.706466    0.716805
H      2.654282   -2.245005   -0.994337
H      0.662905   -1.048723   -1.532681
H     -0.386322    1.879030   -1.338806
H     -1.110786    1.172674    1.634853
H     -1.959971    2.445206    0.441674
H     -2.553107    0.654002   -1.086335
H     -1.011175   -1.131178    1.077833
H     -1.588943   -1.770491   -0.510175
H     -2.772478   -1.196796    0.718196
20

C      3.033378   -0.632703   -0.555238
C      1.812908   -0.411051    0.282643
C      0.612258   -0.841761   -0.121769
C     -0.606512   -0.620097    0.731959
C     -1.318501    0.730824    0.600522
C     -0.761782    1.756591   -0.392783
C     -1.914567   -0.514892   -0.045788
O     -2.996673   -1.047760    0.663321
O     -4.066266   -0.510430    0.112449
H      3.920044   -0.198735   -0.047639
H      3.199978   -1.720794   -0.701857
H      2.908660   -0.140943   -1.543112
H      1.911797    0.114600    1.228749
H      0.515560   -1.376940   -1.063006
H     -0.670749   -1.103393    1.730597
H     -1.830829    1.087813    1.519627
H     -0.454554    1.300080   -1.358059
H      0.114503    2.265054    0.060145
H     -1.542701    2.516740   -0.601611
H     -1.865951   -0.652203   -1.150058
20

C      2.898345    0.602622   -0.753649
C      1.829759   -0.081758    0.040380
C      0.788487   -0.664691   -0.564951
C     -0.277056   -1.353957    0.243624
C     -1.652406   -1.388556   -0.415840
C     -1.415212   -0.492804    0.795013
C     -1.401862    1.014173    0.501641
O     -2.686804    1.529703    0.723426
O     -2.597131    2.827875    0.506204
H      3.663999    1.021905   -0.067953
H      3.386923   -0.123848   -1.436842
H      2.456692    1.430318   -1.347969
H      1.905288   -0.094067    1.124521
H      0.718351   -0.660050   -1.649759
H     -0.017981   -2.256287    0.837318
H     -2.238578   -2.304136   -0.189988
H     -1.736798   -0.868512   -1.394896
H     -1.861135   -0.858021    1.744827
H     -1.086253    1.229669   -0.544934
H     -0.676627    1.490422    1.198919
20

C     -2.869438    0.621322    0.501032
C     -1.709006   -0.088141   -0.196121
C     -1.438326    0.369596   -1.623464
C     -0.499337    0.788762   -0.497311
C      0.810002    0.055262   -0.468573
C      1.396934   -0.248559    0.696301
C      2.711008   -0.968948    0.741201
O      3.706830   -0.164338    0.167868
O      4.820832   -0.867364    0.237312
H     -2.725780    0.557660    1.599529
H     -2.946672    1.692659    0.214427
H     -3.819428    0.112537    0.236187
H     -1.522066   -1.167009   -0.002847
H     -1.063506   -0.435987   -2.291062
H     -2.087947    1.188387   -2.000204
H     -0.551440    1.853126   -0.181884
H      1.298458   -0.195968   -1.406526
H      0.910102    0.013352    1.632252
H      2.961372   -1.185783    1.804042
H      2.617408   -1.930565    0.186935
20

C      3.225400   -0.319667    0.676800
C      1.890778    0.265786    0.334538
C      1.054631   -0.365235   -0.498984
C     -0.271715    0.243130   -0.864158
C     -1.298375    0.204656    0.267449
C     -2.264031    1.387517    0.310704
C     -1.468943   -0.706746   -0.940899
O     -1.157599   -2.046804   -0.675869
O     -2.304625   -2.608267   -0.351494
H      3.759941    0.352358    1.380241
H      3.091685   -1.311130    1.158848
H      3.835882   -0.435156   -0.243617
H      1.603691    1.216259    0.776671
H      1.353851   -1.302108   -0.961298
H     -0.302305    1.137951   -1.522318
H     -0.998331   -0.298524    1.212993
H     -2.503878    1.776424   -0.702812
H     -1.809652    2.205401    0.907359
H     -3.207058    1.069685    0.801767
H     -2.229347   -0.465529   -1.716828
20

C      3.609810   -0.008458    0.015191
C      2.224761   -0.550311   -0.155795
C      1.173712    0.270007   -0.273977
C     -0.210037   -0.278788   -0.468925
C     -0.844432   -0.828627    0.805236
C     -1.310151    0.505439    0.235942
C     -2.673127    0.478070   -0.458541
O     -3.676904    0.671888    0.501093
O     -4.815643    0.678573   -0.164912
H      3.665369    0.604243    0.939729
H      4.332714   -0.846955    0.096196
H      3.882624    0.617695   -0.860457
H      2.079944   -1.627196   -0.180412
H      1.320417    1.346994   -0.269371
H     -0.467552   -0.829388   -1.399370
H     -0.232786   -0.734974    1.728611
H     -1.526763   -1.689512    0.638852
H     -1.001413    1.402119    0.816558
H     -2.837592   -0.486206   -0.993791
H     -2.692950    1.305387   -1.202764
20

C     -1.769024    0.706005   -0.915909
C     -1.469594    0.232689    0.511643
C     -1.700283   -1.253371    0.758253
C     -0.278183   -0.699581    0.736465
C      0.532308   -1.103976   -0.470839
C      1.601605   -0.408543   -0.890833
C      2.098833    0.835893   -0.209565
O      2.605102    0.508283    1.056820
O      2.996335    1.648039    1.593366
H     -2.819385    1.060346   -0.964766
H     -1.099371    1.553924   -1.167967
H     -1.637004   -0.093542   -1.675608
H     -1.719961    0.895067    1.367288
H     -2.080574   -1.485386    1.775403
H     -2.008714   -1.848532   -0.128718
H      0.206017   -0.653663    1.734941
H      0.245069   -1.993421   -1.024685
H      2.126132   -0.751671   -1.777957
H      1.265597    1.569443   -0.124166
H      2.905095    1.281998   -0.834073
20

C     -1.852325   -1.814866   -0.462876
C     -1.560110   -0.976078    0.745724
C     -0.870726    0.174507    0.713889
O     -0.818092    0.929271    1.888283
O     -0.414576    2.206873    1.881494
C     -0.256154    0.717600   -0.560735
C      0.791270   -0.163212   -1.240669
C      1.228594    1.110683   -0.535922
C      2.091095    0.837162    0.703237
H     -2.278750   -1.188295   -1.274541
H     -0.933027   -2.321112   -0.818645
H     -2.593550   -2.597793   -0.198486
H     -2.003506   -1.285779    1.684804
H     -0.892103    1.309891   -1.251919
H      0.794177   -0.090090   -2.348640
H      1.060466   -1.105944   -0.717151
H      1.534854    1.918777   -1.233749
H      3.124780    0.598682    0.376901
H      2.130702    1.749467    1.332551
H      1.716979   -0.009741    1.316451
20

C      1.930542    1.707306    0.415119
C      1.923650    0.244694    0.749804
C      1.069396   -0.632339    0.199005
C      0.056095   -0.246999   -0.851087
C     -1.309870   -0.943563   -0.810034
C     -1.578824   -1.979378    0.287604
C     -1.168123    0.487734   -0.309218
O     -1.711899    1.412421   -1.208532
O     -1.201100    2.575844   -0.860489
H      2.769650    2.206041    0.943561
H      2.063415    1.851018   -0.677864
H      0.980614    2.176372    0.743770
H      2.655715   -0.121802    1.463591
H      1.169427   -1.680237    0.465040
H      0.406079    0.089816   -1.850378
H     -1.805935   -1.063534   -1.797231
H     -2.673691   -2.139641    0.370522
H     -1.102217   -2.941461    0.006996
H     -1.199081   -1.664053    1.283006
H     -1.273844    0.661761    0.785910
20

C      2.840523    0.364506    0.166396
C      2.026207   -0.838229   -0.212700
C      0.752799   -0.760289   -0.630957
C      0.022590    0.550969   -0.792460
C     -0.441657    1.179629    0.519241
C     -1.467457    0.595543   -0.443407
C     -2.155165   -0.687320    0.043925
O     -3.359301   -0.343108    0.674649
O     -3.923469   -1.483852    1.022402
H      3.868186    0.047124    0.440787
H      2.902968    1.068873   -0.689662
H      2.384358    0.876496    1.038995
H      2.496538   -1.815686   -0.157695
H      0.254575   -1.676041   -0.934225
H      0.372840    1.281447   -1.552358
H     -0.404570    2.289338    0.523629
H     -0.236758    0.584906    1.436156
H     -2.059229    1.347062   -1.008577
H     -1.511770   -1.259050    0.751429
H     -2.362207   -1.322317   -0.846475
20

C     -1.853371    1.276811    0.545627
C     -1.231500   -0.119271    0.541230
C     -1.846072   -1.097922   -0.450521
C     -0.477019   -0.484794   -0.730589
C      0.682007   -1.422488   -0.518194
C      1.929750   -0.989697   -0.273658
C      2.298321    0.464694   -0.177339
O      1.710250    1.024639    0.966190
O      2.051001    2.298888    0.958613
H     -2.742309    1.277411    1.209856
H     -2.165923    1.606045   -0.469120
H     -1.113328    2.002826    0.941222
H     -0.870342   -0.569380    1.491510
H     -1.848561   -2.150700   -0.094897
H     -2.665890   -0.691520   -1.080756
H     -0.454155    0.256632   -1.558273
H      0.511936   -2.493211   -0.589004
H      2.719331   -1.726694   -0.158143
H      1.959484    0.993539   -1.097015
H      3.406389    0.544193   -0.107648
20

C      2.658518    0.844515    0.260029
C      2.288090   -0.431312   -0.438600
C      1.051243   -0.950684   -0.401876
C     -0.077320   -0.304155    0.361147
C     -1.466843   -0.613921   -0.192141
C     -2.582934   -0.680173    0.848753
C     -0.867231    0.773636   -0.383838
O     -0.417125    1.012131   -1.689124
O     -1.425240    1.603685   -2.297174
H      3.731732    1.067712    0.085411
H      2.051437    1.686036   -0.134886
H      2.489119    0.743558    1.352689
H      3.057430   -0.955681   -0.997816
H      0.865356   -1.886281   -0.921788
H      0.003412   -0.176009    1.462122
H     -1.529211   -1.240348   -1.108895
H     -3.547486   -0.420573    0.365262
H     -2.649853   -1.714800    1.244234
H     -2.412038    0.015846    1.698679
H     -1.221052    1.626818    0.236905
20

C      2.204688    1.233366   -0.235540
C      2.396890   -0.200009    0.167028
C      1.434713   -1.127667    0.045183
C      0.078119   -0.816553   -0.527692
C     -1.058827   -1.665251    0.032394
C     -0.899844   -0.216388    0.475514
C     -1.910806    0.766963   -0.117203
O     -3.052121    0.792088    0.696793
O     -3.859818    1.684772    0.157294
H      1.389988    1.691902    0.363252
H      1.953788    1.295867   -1.315369
H      3.141249    1.800830   -0.054137
H      3.359508   -0.497453    0.572578
H      1.656554   -2.148897    0.341710
H     -0.023483   -0.512293   -1.591794
H     -0.775225   -2.405329    0.811324
H     -1.879968   -1.860482   -0.689995
H     -0.529457   -0.072749    1.514197
H     -1.435111    1.773024   -0.137664
H     -2.190836    0.484259   -1.158779
18

C     -1.712897    1.155847   -0.327950
C     -2.025957   -0.055675    0.559427
C     -1.744262   -1.414056   -0.072227
C     -0.861299   -0.908479    1.063531
C      0.493834   -0.529437    0.633379
C      1.603533   -0.217180    0.280370
C      2.948376    0.164393   -0.150782
O      2.850854    1.187932   -1.102708
O      4.091265    1.479556   -1.443834
H     -0.946429    0.940356   -1.102746
H     -2.643000    1.476486   -0.841099
H     -1.354620    1.991227    0.308702
H     -2.910594   -0.022933    1.230305
H     -1.289748   -1.394589   -1.087276
H     -2.459089   -2.207962    0.230769
H     -1.003901   -1.429729    2.033391
H      3.445277   -0.729002   -0.589734
H      3.518657    0.513247    0.738494
18

C      3.315626   -0.407041   -0.128160
C      1.898888   -0.226076   -0.443426
C      0.730583   -0.077373   -0.700980
C     -0.694638    0.103514   -1.015448
C     -1.715060   -0.355174    0.031152
C     -1.190023   -1.019770    1.309566
C     -1.380744    1.124799   -0.114490
O     -2.401724    1.836942   -0.753552
O     -1.827741    2.937244   -1.196379
H      3.751302   -1.168898   -0.806820
H      3.419885   -0.745531    0.923234
H      3.850175    0.555936   -0.261308
H     -1.026629    0.101654   -2.075374
H     -2.694457   -0.677663   -0.383272
H     -0.321720   -0.484581    1.750031
H     -0.891758   -2.064316    1.082443
H     -2.002893   -1.040527    2.064580
H     -0.819072    1.606861    0.718202
18

C      2.999880    0.533707   -1.097402
C      1.899001    0.004354   -0.293005
C      0.989647   -0.430331    0.368444
C     -0.120947   -0.958759    1.176211
C     -1.158415   -1.725951    0.363802
C     -1.509692   -0.360879    0.945118
C     -1.666743    0.766421   -0.085647
O     -1.280832    1.979018    0.503467
O     -1.469893    2.903933   -0.418002
H      3.919383   -0.054460   -0.898961
H      2.739435    0.461332   -2.173398
H      3.175381    1.596104   -0.830319
H      0.083761   -1.374853    2.184977
H     -0.987557   -1.759363   -0.734813
H     -1.616745   -2.578606    0.907847
H     -2.189625   -0.390300    1.823172
H     -2.739955    0.811452   -0.376686
H     -1.066085    0.577180   -1.004793
18

C     -3.009648    0.678258    0.075020
C     -1.683438   -0.018673    0.377658
C     -1.415143   -1.273706   -0.443645
C     -0.661952    0.015236   -0.750641
C      0.733481    0.009929   -0.294779
C      1.879530    0.006052    0.079597
C      3.269899    0.000345    0.535245
O      3.981956    0.992039   -0.152367
O      5.217252    0.929418    0.306112
H     -3.278233    0.631455   -1.002770
H     -3.817174    0.196635    0.664481
H     -2.936531    1.743772    0.376092
H     -1.296138   -0.044918    1.419775
H     -2.192239   -1.535099   -1.193534
H     -0.839870   -2.054240    0.100402
H     -0.939654    0.526877   -1.696844
H      3.704395   -1.003188    0.330511
H      3.283508    0.199810    1.629699
18

C      3.487473   -0.604400   -1.028535
C      2.224597   -0.226650   -0.394417
C      1.183149    0.084570    0.127062
C     -0.087157    0.463857    0.763642
C     -1.280921   -0.348936    0.270564
C     -2.372507   -0.598074    1.309843
C     -1.131182    1.108794   -0.148787
O     -0.712413    1.269113   -1.476623
O     -1.822995    1.399509   -2.173548
H      3.502532   -0.231783   -2.073421
H      4.332527   -0.158486   -0.464729
H      3.585242   -1.709517   -1.028727
H     -0.096607    0.781056    1.828194
H     -1.095936   -1.101683   -0.527516
H     -2.135078   -1.525500    1.870981
H     -3.344289   -0.734299    0.791553
H     -2.469053    0.240996    2.032824
H     -1.767383    1.891435    0.321638
18

C      3.878564   -0.252346   -0.091713
C      2.426475   -0.405461   -0.179932
C      1.229636   -0.531112   -0.251888
C     -0.227828   -0.683881   -0.339985
C     -0.915734   -0.815093    1.013701
C     -1.011582    0.489819    0.231967
C     -2.364267    0.753130   -0.432926
O     -3.211844    1.379458    0.491938
O     -4.338505    1.613876   -0.153056
H      4.303132   -1.087286    0.502818
H      4.314656   -0.265595   -1.111759
H      4.119483    0.712108    0.400878
H     -0.680009   -1.264250   -1.172377
H     -1.825803   -1.452326    1.001593
H     -0.251806   -0.758903    1.903719
H     -0.424619    1.337479    0.649352
H     -2.829197   -0.192496   -0.797595
H     -2.190753    1.422878   -1.304724
22

C      1.137086   -1.442831    1.184736
C      0.758039   -0.103759    0.529853
C      1.987864    0.455069   -0.215539
O      1.750696    1.771391   -0.639684
O      2.839131    2.145133   -1.284677
C     -0.442320   -0.298561   -0.435174
C     -1.124024    0.994186   -0.893380
C     -2.430362    0.535014   -0.264792
C     -1.748653   -0.726397    0.241156
H      1.999500   -1.305785    1.871592
H      0.296706   -1.845297    1.786495
H      1.412005   -2.191986    0.411182
H      0.478055    0.606990    1.339835
H      2.865180    0.448887    0.471662
H      2.218847   -0.196606   -1.090040
H     -0.195241   -0.960487   -1.296167
H     -0.746491    1.915981   -0.400562
H     -1.188613    1.073005   -2.000556
H     -3.215113    0.320068   -1.022826
H     -2.767007    1.200710    0.560071
H     -1.707944   -0.744626    1.352069
H     -2.177341   -1.650099   -0.205252
22

C     -1.670387    0.418226   -1.381003
C     -1.067609   -0.333218   -0.185114
C     -2.110633   -0.427423    0.938064
C      0.211714    0.380724    0.317002
C      1.015892   -0.414476    1.350238
C      2.205101   -0.458175    0.401969
C      1.400739    0.302339   -0.648487
O      1.931872    1.577541   -0.904791
O      2.910809    1.392453   -1.769320
H     -0.955200    0.447651   -2.228990
H     -2.590084   -0.096038   -1.733128
H     -1.929792    1.461080   -1.097620
H     -0.815303   -1.366489   -0.513908
H     -3.027198   -0.935159    0.568695
H     -1.718481   -1.018972    1.791139
H     -2.385408    0.585628    1.303257
H      0.010835    1.419636    0.666405
H      0.619628   -1.432687    1.557380
H      1.227531    0.175643    2.268541
H      3.077679    0.112231    0.790314
H      2.452564   -1.492549    0.077699
H      1.205732   -0.297964   -1.568345
22

C     -1.928371   -1.018453   -0.767765
C     -1.073977   -0.106315    0.125944
C     -1.803764    1.230968    0.325144
C      0.323834    0.125619   -0.507040
C      1.193760   -1.130596   -0.613215
C      2.276225   -0.462571    0.221925
C      1.396171    0.773474    0.386712
O      0.986112    0.938210    1.721779
O      1.975577    1.565560    2.327851
H     -1.462464   -2.020189   -0.870507
H     -2.934946   -1.161355   -0.319634
H     -2.047495   -0.575274   -1.779977
H     -0.964432   -0.602160    1.116069
H     -2.797359    1.058943    0.791487
H     -1.230011    1.904009    0.994022
H     -1.951069    1.744866   -0.649230
H      0.253826    0.645262   -1.489920
H      0.774993   -2.021401   -0.095788
H      1.524289   -1.334551   -1.655065
H      2.471210   -1.001474    1.175483
H      3.194256   -0.249523   -0.368091
H      1.823636    1.696951   -0.070186
22

C     -2.147508   -0.936043   -0.363871
C     -1.157834    0.045564    0.280182
C     -1.784202    1.446699    0.328208
C      0.174399    0.071538   -0.508671
C      1.307697    0.833748    0.183978
C      2.133404   -0.447919    0.249265
O      3.264303   -0.396706   -0.582320
O      4.190239    0.237251    0.110866
C      0.996004   -1.217533   -0.410870
H     -1.739601   -1.968087   -0.355765
H     -3.102306   -0.946047    0.204087
H     -2.359602   -0.644866   -1.415243
H     -0.967533   -0.287032    1.325439
H     -1.983336    1.821977   -0.698759
H     -1.109969    2.161585    0.843886
H     -2.741650    1.419740    0.891129
H      0.043278    0.397988   -1.565433
H      1.054611    1.204479    1.201246
H      1.754282    1.613468   -0.471663
H      2.346146   -0.803335    1.284937
H      0.567974   -1.980120    0.276135
H      1.261207   -1.626350   -1.410881
22

C     -2.039103   -1.133130    0.031917
C     -0.970878   -0.150896    0.534227
C     -1.655144    1.093724    1.118126
C     -0.010409    0.243899   -0.614718
C      1.227067    1.027143   -0.166660
C      2.126223   -0.092781   -0.682573
O      2.824659   -0.736859    0.352221
O      3.885756    0.010436    0.587485
C      0.897172   -0.890173   -1.101485
H     -1.571125   -2.068020   -0.340047
H     -2.727760   -1.407085    0.859575
H     -2.631966   -0.679401   -0.791361
H     -0.396209   -0.647128    1.348437
H     -2.234265    1.626534    0.333347
H     -0.905451    1.792696    1.543307
H     -2.346906    0.802380    1.937207
H     -0.533573    0.746246   -1.459969
H      1.360329    1.969667   -0.740924
H      1.307203    1.166415    0.934113
H      2.764065    0.196285   -1.550686
H      0.789158   -1.840100   -0.532517
H      0.841158   -1.029852   -2.203139
20

C     -1.623934   -0.357608    1.118833
C     -1.253860    0.114680   -0.085980
C     -2.299365    0.444973   -1.117268
C      0.206939    0.331806   -0.454951
C      1.006381    1.156017    0.555155
C      1.913444   -0.042297    0.812106
C      1.119243   -0.871245   -0.198465
O      1.878454   -1.182641   -1.339079
O      2.598832   -2.238913   -1.014384
H     -2.670536   -0.506857    1.365829
H     -0.888059   -0.602890    1.877686
H     -2.129252   -0.170497   -2.025395
H     -2.222670    1.518375   -1.389925
H     -3.329396    0.249349   -0.748876
H      0.324626    0.737575   -1.485864
H      1.550816    1.998102    0.074379
H      0.436927    1.462728    1.459637
H      1.814397   -0.433574    1.848035
H      2.965016    0.146993    0.502564
H      0.602001   -1.754078    0.245964
20

C     -2.335073   -0.907201    0.431249
C     -1.275128   -0.168734    0.070082
C     -1.455399    0.861024   -1.020962
C      0.069106   -0.410106    0.752661
C      0.823569    0.861567    1.144960
C      1.965443    0.473500    0.211496
C      1.232976   -0.815293   -0.162386
O      0.887296   -0.864367   -1.524211
O      1.976438   -1.254487   -2.157708
H     -3.301833   -0.761910   -0.042237
H     -2.254791   -1.667346    1.202377
H     -1.844780    0.371908   -1.939072
H     -0.501513    1.362315   -1.281314
H     -2.178790    1.635121   -0.688463
H     -0.007742   -1.101589    1.622973
H      0.330431    1.813170    0.852168
H      1.136866    0.850433    2.212049
H      2.914371    0.278735    0.757058
H      2.073580    1.181530   -0.639575
H      1.744975   -1.738269    0.198854
20

C     -1.597792   -1.003010    0.715146
C     -1.285155    0.228615    0.274388
C     -2.348773    1.293647    0.293623
C      0.107874    0.571889   -0.240381
C      1.251742    0.182508    0.696876
C      1.789586   -0.774821   -0.367213
O      3.033919   -0.365560   -0.874209
O      3.932740   -0.804285   -0.014344
C      0.651273   -0.381811   -1.305690
H     -2.597080   -1.225598    1.077765
H     -0.865752   -1.804049    0.721069
H     -3.205834    0.980302   -0.339473
H     -1.964591    2.260122   -0.093905
H     -2.703525    1.451715    1.334158
H      0.201281    1.631678   -0.566982
H      1.935109    1.036356    0.900904
H      0.933143   -0.348290    1.620297
H      1.749131   -1.850507   -0.075379
H      1.000319    0.158760   -2.213344
H     -0.017615   -1.237660   -1.543305
20

C     -1.573000   -0.410653    0.995640
C     -1.221213    0.381387   -0.032654
C     -2.285806    1.209755   -0.701079
C      0.215178    0.463000   -0.536516
C      1.263498    0.735560    0.543469
C      1.928288   -0.602935    0.230579
O      1.839059   -1.485595    1.319446
O      2.482616   -2.576099    0.950279
C      0.871018   -0.885185   -0.837703
H     -2.603309   -0.451939    1.336786
H     -0.844419   -1.026981    1.510806
H     -3.073042    0.545617   -1.116713
H     -1.868727    1.816977   -1.531234
H     -2.744825    1.899572    0.038539
H      0.333787    1.163847   -1.392903
H      1.917274    1.597037    0.284480
H      0.856010    0.797035    1.576811
H      2.961765   -0.482093   -0.171054
H      1.310793   -0.919682   -1.858315
H      0.235054   -1.768624   -0.608665
22

C      0.760124   -0.525520    1.700235
C      0.647474    0.084440    0.297292
C      2.023239    0.121566   -0.387626
O      2.891087    0.964371    0.325216
O      4.040054    0.929309   -0.322016
C     -0.327692   -0.761837   -0.551829
C     -0.957644   -0.031456   -1.735506
C     -1.826922   -0.442313   -0.551162
C     -2.355623    0.715865    0.303836
H      1.425402    0.093106    2.339145
H     -0.236873   -0.566772    2.185655
H      1.170070   -1.557271    1.648166
H      0.298284    1.132824    0.401187
H      1.900462    0.508751   -1.425153
H      2.443366   -0.909800   -0.439475
H     -0.069804   -1.821947   -0.765321
H     -1.088723   -0.667120   -2.636430
H     -0.710132    1.048871   -1.817253
H     -2.487716   -1.315822   -0.736182
H     -2.247930    0.467977    1.379136
H     -3.436060    0.849267    0.089121
H     -1.854442    1.683513    0.094844
22

C      1.744041    0.342504   -1.326184
C      0.733152    0.225394   -0.177852
C      1.429652   -0.245660    1.108273
O      2.344287    0.727860    1.540834
O      2.899717    0.240563    2.633692
C     -0.368643   -0.785131   -0.568689
C     -1.469083   -0.228450   -1.468811
C     -1.793628   -0.616414   -0.029508
C     -2.115976    0.554955    0.906555
H      2.534990    1.080053   -1.073038
H      1.234738    0.691841   -2.249541
H      2.221649   -0.639641   -1.532627
H      0.316679    1.238833   -0.000493
H      1.954798   -1.210158    0.916406
H      0.664319   -0.412871    1.899050
H     -0.075439   -1.829497   -0.812087
H     -1.836565   -0.951402   -2.227233
H     -1.404088    0.859450   -1.686211
H     -2.362031   -1.564051    0.083605
H     -1.589480    0.419337    1.872912
H     -3.207225    0.557052    1.107581
H     -1.855865    1.545433    0.479247
22

C      2.112112    0.862491    0.598232
C      1.655055    0.066861   -0.629501
C      1.309781   -1.387064   -0.323133
C      0.211368   -0.433116   -0.797329
C     -0.935514   -0.024532    0.185871
C     -2.243229   -0.721749   -0.274264
C     -1.172938    1.491384    0.068975
O     -0.645246   -0.306044    1.546903
O     -0.829333   -1.597458    1.762451
H      2.024999    1.947309    0.384452
H      1.553859    0.626972    1.522969
H      3.183036    0.639842    0.785993
H      2.232840    0.190177   -1.570483
H      1.378732   -1.645704    0.752193
H      1.670476   -2.093890   -1.099965
H     -0.065469   -0.561835   -1.866731
H     -2.102380   -1.821188   -0.355198
H     -2.558289   -0.353487   -1.275073
H     -3.063705   -0.522291    0.448387
H     -2.070967    1.787890    0.653160
H     -0.317592    2.066018    0.473077
H     -1.327596    1.789417   -0.990985
22

C     -1.558662    1.544088   -0.287138
C     -0.978890    0.246743    0.285002
C     -2.105815   -0.753283    0.564092
C      0.019408   -0.366437   -0.720879
C      1.501203    0.033658   -0.670663
C      1.980095    1.036351    0.384776
C      1.050404   -1.311927   -0.109416
O      1.339522   -2.393281   -0.948891
O      2.499872   -2.853897   -0.527579
H     -0.748531    2.275993   -0.485427
H     -2.265660    2.000270    0.438311
H     -2.098432    1.347091   -1.238595
H     -0.497887    0.480353    1.257398
H     -2.830167   -0.323180    1.288483
H     -1.690127   -1.684679    1.004247
H     -2.645291   -1.010916   -0.372971
H     -0.352091   -0.668918   -1.724700
H      2.026900   -0.006023   -1.648898
H      3.084525    1.120084    0.317977
H      1.732505    0.730957    1.422741
H      1.546758    2.035755    0.178188
H      0.990361   -1.478802    0.989823
22

C     -1.395627    0.218788    1.580089
C     -1.002367   -0.321187    0.201585
C     -2.257413   -0.713426   -0.585301
C     -0.219619    0.759284   -0.576846
C      0.666044    0.230954   -1.702730
C      1.306892    0.844182   -0.461035
C      2.057681   -0.140293    0.447701
O      3.435960    0.062726    0.286132
O      4.024839   -0.766150    1.126969
H     -1.946247   -0.557750    2.152876
H     -0.491207    0.497449    2.159407
H     -2.042690    1.116995    1.480174
H     -0.405302   -1.244397    0.348785
H     -2.828773   -1.490865   -0.034320
H     -1.973308   -1.131120   -1.574659
H     -2.914302    0.168855   -0.745261
H     -0.729733    1.716340   -0.821413
H      0.717134   -0.875549   -1.791965
H      0.693496    0.887419   -2.597821
H      1.719736    1.866199   -0.601996
H      1.814173   -1.199256    0.208480
H      1.770633    0.070801    1.501148
22

C      1.556495    0.078089    1.701177
C      1.056178    0.425923    0.291922
C      1.583360   -0.606442   -0.728309
O      2.987871   -0.606271   -0.728646
O      3.349176   -1.530244   -1.598297
C     -0.490836    0.580567    0.341322
C     -1.090021    1.227915   -0.908088
C     -1.396935   -0.229334   -0.590676
C     -2.809868   -0.480552   -0.064306
H      2.666271    0.047037    1.729432
H      1.225256    0.849774    2.428906
H      1.159771   -0.909390    2.021610
H      1.484602    1.418239    0.026771
H      1.227489   -0.336804   -1.747157
H      1.202349   -1.618730   -0.459394
H     -0.946488    0.997944    1.266527
H     -0.399302    1.369864   -1.765664
H     -1.910664    1.948517   -0.701982
H     -0.958052   -0.955838   -1.303076
H     -2.824351   -1.442574    0.488509
H     -3.511194   -0.552487   -0.921434
H     -3.161108    0.324798    0.616736
22

C      1.060216   -1.246447   -1.231255
C      1.105521    0.066398   -0.429779
C      2.099772   -0.078887    0.734563
O      2.309133    1.168774    1.344364
O      3.145832    0.947719    2.340048
C     -0.271580    0.543182    0.117486
C     -1.203117    1.086790   -0.967488
C     -1.564157   -0.198787   -0.238539
C     -2.696461   -0.055095    0.778255
H      2.080408   -1.522107   -1.574083
H      0.433180   -1.130369   -2.139627
H      0.664252   -2.074992   -0.605691
H      1.502036    0.856841   -1.105818
H      3.070584   -0.464163    0.345849
H      1.695085   -0.807754    1.474757
H     -0.286080    1.193026    1.019993
H     -0.875092    0.930938   -2.017208
H     -1.779814    1.988475   -0.668147
H     -1.532100   -1.105894   -0.874439
H     -2.636626   -0.889964    1.506737
H     -3.670871   -0.113231    0.250169
H     -2.650121    0.905548    1.335735
22

C     -1.746176    0.601527   -1.045393
C     -1.141926    0.415210    0.355825
C     -2.175097   -0.258141    1.266715
C      0.202757   -0.367299    0.453820
C      1.372175    0.371710   -0.209113
C      2.679345    0.388596    0.583463
C      0.965547   -1.002623   -0.721794
O      0.325503   -0.972324   -1.963558
O      1.289308   -1.106946   -2.852009
H     -1.044005    1.135537   -1.717503
H     -2.662913    1.225745   -0.977961
H     -2.034783   -0.375953   -1.486798
H     -0.960024    1.431072    0.771993
H     -3.124198    0.319801    1.273123
H     -1.798316   -0.302611    2.311144
H     -2.385270   -1.291974    0.917099
H      0.470939   -0.767970    1.456297
H      1.137582    1.222424   -0.883668
H      3.529992    0.500709   -0.120364
H      2.829587   -0.539367    1.176851
H      2.672994    1.256175    1.275278
H      1.596979   -1.883297   -0.467565
22

C     -2.088060    0.407810    1.481809
C     -1.477143   -0.261964    0.246052
C     -1.863194    0.533861   -1.012026
C      0.049930   -0.442995    0.470304
C      0.698384   -1.420457   -0.511784
C      1.065301    0.055594   -0.563478
C      2.448195    0.394290   -0.002502
O      3.407686    0.200108   -1.006508
O      4.562855    0.548860   -0.473324
H     -1.885205   -0.200867    2.389057
H     -1.658151    1.422445    1.626925
H     -3.190119    0.496035    1.370692
H     -1.935070   -1.272664    0.162608
H     -2.968261    0.625784   -1.081198
H     -1.520249    0.009820   -1.928304
H     -1.427804    1.555635   -0.980037
H      0.411639   -0.618748    1.507601
H      1.461008   -2.089914   -0.058655
H      0.064772   -1.755111   -1.360446
H      0.714795    0.583222   -1.473165
H      2.435445    1.462291    0.310290
H      2.693246   -0.233037    0.886091
20

C      0.865022    1.624148    0.569404
C      0.912304    0.219503    0.035093
C      1.751330   -0.678151    0.567744
O      2.535173   -0.357931    1.673283
O      3.369189   -1.265117    2.196083
C      0.110574   -0.130678   -1.196879
C     -0.722493   -1.410221   -1.114947
C     -1.418384   -0.056983   -1.102459
C     -2.083663    0.283496    0.236716
H      1.880822    2.072940    0.549599
H      0.487087    1.618021    1.613517
H      0.195934    2.260104   -0.047713
H      1.829247   -1.670831    0.139444
H      0.541735    0.081507   -2.198007
H     -0.808794   -1.953885   -2.079273
H     -0.693926   -1.949034   -0.142866
H     -1.949543    0.189782   -2.046189
H     -1.525333   -0.110657    1.112347
H     -3.104520   -0.151280    0.252387
H     -2.171759    1.385270    0.331810
20

C      1.763805    1.080023   -0.517328
C      0.925665    0.288570    0.169758
C      1.333097   -1.123825    0.502408
O      2.513731   -1.106961    1.260923
O      2.816913   -2.371433    1.483300
C     -0.372377    0.842828    0.717067
C     -1.266443    1.576999   -0.282519
C     -1.681870    0.207237    0.234117
C     -1.647362   -0.891796   -0.835052
H      2.713376    0.700055   -0.882436
H      1.514453    2.117333   -0.718701
H      1.488680   -1.684793   -0.447152
H      0.524029   -1.621189    1.083516
H     -0.390054    1.253004    1.748848
H     -1.839210    2.419323    0.159515
H     -0.902135    1.607691   -1.332436
H     -2.526284    0.231123    0.955277
H     -0.823930   -0.759430   -1.568681
H     -1.535002   -1.879041   -0.341720
H     -2.609081   -0.885718   -1.388706
20

C     -1.846382    1.270553   -0.286408
C     -1.194179    0.099547   -0.257618
C     -1.810582   -1.068275    0.463710
C      0.048087   -0.102172   -1.102279
C      1.326666   -0.597918   -0.407601
C      1.343673   -0.802960    1.114934
C      1.231216    0.850415   -0.884193
O      1.033588    1.802779    0.126514
O      2.233132    2.280728    0.388985
H     -2.771567    1.405468    0.266177
H     -1.468798    2.105619   -0.868652
H     -2.847610   -1.233790    0.101707
H     -1.834125   -0.866730    1.555315
H     -1.230375   -1.997042    0.281781
H     -0.079068   -0.452317   -2.148396
H      1.992659   -1.229871   -1.032320
H      2.373616   -0.629708    1.489927
H      1.062827   -1.851661    1.343109
H      0.655707   -0.125087    1.661192
H      1.781516    1.142422   -1.805884
20

C     -0.976382   -1.621263    0.692789
C     -1.088986   -0.407836    0.135477
C     -2.020371    0.603413    0.748397
C     -0.396500   -0.122167   -1.178643
C      0.290363    1.239693   -1.300641
C      1.135108   -0.024120   -1.184691
C      1.933254   -0.221194    0.123118
O      1.409300    0.510144    1.202714
O      2.173335    0.221831    2.238631
H     -1.502149   -1.862587    1.611877
H     -0.359327   -2.388467    0.234844
H     -3.028416    0.157306    0.885371
H     -1.626004    0.924045    1.735542
H     -2.127123    1.496389    0.097947
H     -0.847024   -0.510622   -2.116574
H      0.242863    1.894430   -0.405969
H      0.255495    1.666016   -2.325231
H      1.607812   -0.351252   -2.135310
H      2.979342    0.104283   -0.071891
H      1.945409   -1.308040    0.361337
20

C      1.727920    1.568121   -0.517473
C      1.030815    0.585178    0.071836
C      1.751092   -0.480259    0.858409
O      2.465943    0.114237    1.909626
O      3.089098   -0.872481    2.524732
C     -0.478036    0.597607    0.017033
C     -1.065421    0.518839   -1.392355
C     -1.123489   -0.694224   -0.477787
C     -2.502192   -0.996412    0.107795
H      2.812529    1.588920   -0.466651
H      1.221833    2.363019   -1.057238
H      2.443376   -1.022172    0.174591
H      1.016858   -1.208215    1.271608
H     -1.050662    1.235147    0.724405
H     -2.020088    1.072749   -1.519925
H     -0.331364    0.417952   -2.220690
H     -0.451352   -1.529261   -0.771815
H     -3.085817   -1.593616   -0.623125
H     -2.378820   -1.591664    1.036131
H     -3.072221   -0.073467    0.350893
20

C     -2.160722    1.101050   -0.598615
C     -1.391408    0.134508   -0.079181
C     -1.931248   -0.728848    1.028676
C     -0.041231   -0.161358   -0.691610
C      1.109302   -0.317843    0.304489
C      2.198088   -1.304572   -0.112051
C      1.025910    0.931941   -0.558946
O      0.611340    2.065881    0.152353
O      1.724515    2.658044    0.534918
H     -1.809656    1.703626   -1.431125
H     -3.150087    1.300557   -0.197595
H     -2.081505   -0.115052    1.941637
H     -1.231287   -1.557170    1.266397
H     -2.901951   -1.174363    0.723640
H      0.010684   -0.754059   -1.630021
H      0.885122   -0.166326    1.382987
H      2.340849   -1.338033   -1.214086
H      1.922505   -2.319515    0.241921
H      3.157223   -1.010028    0.362097
H      1.713557    1.051559   -1.425884
20

C     -1.832207   -0.498508    1.317145
C     -1.538478   -0.063111    0.076816
C     -2.647767   -0.016353   -0.939172
C     -0.149419    0.390515   -0.359907
C      0.670382    1.173426    0.663804
C      1.058531   -0.262005    0.309040
C      2.298000   -0.397427   -0.578592
O      3.439616   -0.424085    0.235101
O      4.461795   -0.584717   -0.583241
H     -2.843198   -0.807784    1.566592
H     -1.093181   -0.553977    2.106874
H     -3.064696   -1.034910   -1.088936
H     -2.284674    0.358649   -1.919057
H     -3.455019    0.659387   -0.584979
H     -0.005877    0.735408   -1.407082
H      0.223598    1.294093    1.671938
H      1.310031    1.966711    0.221044
H      0.872165   -1.023843    1.093744
H      2.370339    0.441453   -1.309503
H      2.210058   -1.352921   -1.142535
24

C     -1.086278    1.826708    0.047897
C     -0.428900    0.869876   -0.949274
C      0.177601   -0.424321   -0.331057
C     -0.878799   -1.343571    0.336299
C     -1.975163   -1.808457   -0.623506
C      1.366457   -0.180605    0.643919
C      2.481474    0.668243    0.014194
O      0.908982    0.420119    1.834345
O      1.805353    0.150779    2.765816
H     -1.560512    2.661516   -0.509921
H     -1.877611    1.317378    0.633698
H     -0.332636    2.267817    0.730540
H      0.355432    1.423553   -1.506366
H     -1.181717    0.593040   -1.716508
H      0.596326   -1.000913   -1.187160
H     -1.346079   -0.842624    1.209860
H     -0.367512   -2.253144    0.721440
H     -2.657529   -0.970494   -0.875516
H     -2.578805   -2.603237   -0.136584
H     -1.531232   -2.222768   -1.553460
H      1.803800   -1.185439    0.862891
H      3.391455    0.625563    0.649295
H      2.744946    0.280107   -0.992668
H      2.170947    1.730872   -0.068178
22

C     -0.417253    2.553285    0.900951
C     -0.268275    1.241336    1.109169
C      0.207121    0.302191    0.019805
C      1.510666   -0.381088    0.491555
C      2.210487   -1.172952   -0.614434
C     -0.906298   -0.715675   -0.353793
C     -2.127651   -0.008110   -0.950557
O     -1.320241   -1.441898    0.784470
O     -0.750954   -2.631193    0.714680
H     -0.199383    2.998517   -0.064824
H     -0.764570    3.193208    1.705473
H     -0.504104    0.836483    2.089490
H      0.453943    0.891256   -0.893306
H      2.219986    0.402605    0.839547
H      1.310924   -1.051270    1.355435
H      1.633600   -2.083536   -0.875605
H      2.344943   -0.544424   -1.520208
H      3.211748   -1.495458   -0.258687
H     -0.529874   -1.381405   -1.166834
H     -2.612698    0.649745   -0.198580
H     -1.831172    0.601923   -1.830499
H     -2.870945   -0.763541   -1.283249
22

C      0.187725    2.231954    1.130116
C      0.263898    0.964753    1.554133
C      0.289821   -0.235467    0.625244
C      1.369022   -0.081408   -0.476517
C      1.594711   -1.364537   -1.276955
C     -1.132073   -0.619016    0.108205
C     -1.721032    0.376586   -0.897825
O     -2.029404   -0.730065    1.190631
O     -1.806408   -1.904508    1.751815
H      0.139366    2.478391    0.075463
H      0.184105    3.042800    1.851148
H      0.336593    0.785506    2.623218
H      0.623911   -1.087591    1.258624
H      1.118596    0.741519   -1.176948
H      2.333372    0.187610    0.008414
H      0.718707   -1.583705   -1.921795
H      2.480385   -1.237869   -1.934683
H      1.780779   -2.222420   -0.596527
H     -1.067184   -1.595370   -0.427562
H     -1.896216    1.365064   -0.427849
H     -1.066593    0.490496   -1.785380
H     -2.702081   -0.002722   -1.254971
22

C     -0.360596    2.640533   -0.306713
C     -0.349972    1.564264    0.485690
C     -0.390369    0.157299   -0.069468
C     -1.691260   -0.523398    0.410214
C     -1.996794   -1.825198   -0.333135
C      0.864627   -0.625020    0.380879
C      2.158292   -0.029575   -0.184871
O      3.242763   -0.834305    0.195458
O      4.312458   -0.269399   -0.330835
H     -0.394663    2.543708   -1.387411
H     -0.333342    3.633942    0.128927
H     -0.317697    1.705029    1.562687
H     -0.405078    0.191098   -1.182927
H     -2.547600    0.166175    0.237559
H     -1.639749   -0.726817    1.502572
H     -1.978894   -1.661372   -1.431511
H     -1.269302   -2.617680   -0.063769
H     -3.009076   -2.182029   -0.048371
H      0.798619   -1.674993    0.027202
H      0.923108   -0.643704    1.491852
H      2.298326    1.001343    0.211916
H      2.086198    0.010099   -1.295943
20

C     -0.399356    2.989918   -0.000351
C     -0.097212    1.833897   -0.162266
C      0.272848    0.419139   -0.361274
C      1.552644    0.119271    0.451509
C      2.178094   -1.233779    0.108341
C     -0.905873   -0.516700    0.014902
C     -2.125310   -0.276294   -0.889368
O     -1.260835   -0.317577    1.365532
O     -1.867966   -1.419949    1.765053
H     -0.664882    4.004328    0.141893
H      0.506445    0.288011   -1.440955
H      2.313505    0.901867    0.232949
H      1.339168    0.158150    1.542228
H      3.175446   -1.311037    0.590516
H      2.309526   -1.336787   -0.989715
H      1.552365   -2.066967    0.488830
H     -0.575444   -1.566767   -0.160218
H     -1.837816   -0.369659   -1.958302
H     -2.554817    0.732836   -0.714622
H     -2.910529   -1.031900   -0.675588
20

C      0.291784    2.902630    0.901553
C      0.237875    1.703111    0.791938
C      0.171672    0.235874    0.658506
C      1.423355   -0.265546   -0.096856
C      1.509208   -1.790407   -0.168764
C     -1.183482   -0.202992    0.027406
C     -1.344666    0.257316   -1.427582
O     -2.259698    0.317925    0.775608
O     -2.389525   -0.451311    1.841119
H      0.338858    3.955423    0.997370
H      0.217929   -0.179347    1.688992
H      1.464002    0.156655   -1.123733
H      2.329944    0.096235    0.437733
H      2.502717   -2.085541   -0.567380
H      0.733708   -2.196097   -0.850763
H      1.387388   -2.235891    0.841379
H     -1.239850   -1.316848    0.014680
H     -1.222181    1.357519   -1.513792
H     -2.359506   -0.010124   -1.791513
H     -0.609531   -0.248584   -2.086807
20

C     -0.778785    3.207757    0.592823
C     -0.543126    2.031619    0.469953
C     -0.254552    0.594322    0.320965
C     -1.591778   -0.159303    0.147182
C     -1.431704   -1.678575    0.162336
C      0.721785    0.376338   -0.868181
C      1.815380   -0.651973   -0.557084
O      2.674592   -0.146978    0.431534
O      3.581770   -1.083285    0.632903
H     -0.985640    4.239967    0.700491
H      0.216230    0.267080    1.274041
H     -2.084673    0.145306   -0.802648
H     -2.274976    0.115261    0.981940
H     -0.910976   -2.024895   -0.754313
H     -0.866096   -2.002161    1.061825
H     -2.434474   -2.154944    0.186304
H      1.233510    1.326136   -1.145507
H      0.165121    0.050787   -1.774166
H      1.358816   -1.607619   -0.219624
H      2.389575   -0.844841   -1.491679
20

C     -0.246530    2.210134   -0.841015
C     -0.405038    1.040516   -1.473035
C     -0.155006   -0.307772   -0.825942
C      1.203842   -0.389295   -0.164780
C      1.743690   -1.566661    0.170538
O      2.997048   -1.663984    0.780809
O      3.730450   -0.580025    1.071455
C     -1.306177   -0.733193    0.116343
C     -1.432441    0.103781    1.391955
H      0.085304    2.257679    0.190652
H     -0.441785    3.139164   -1.366523
H     -0.723218    1.058035   -2.511669
H     -0.150389   -1.042661   -1.662154
H      1.756207    0.520828    0.030593
H      1.204007   -2.482996   -0.032758
H     -1.157452   -1.794998    0.410158
H     -2.269293   -0.686516   -0.437584
H     -0.461074    0.169140    1.925109
H     -1.802154    1.122475    1.156901
H     -2.169990   -0.373650    2.070947
20

C     -0.889060    2.090057    1.282344
C     -0.795516    1.647852    0.021216
C     -0.348230    0.253532   -0.374436
C     -0.613473   -0.828029    0.699422
C     -0.438990   -2.243304    0.147251
C      1.105723    0.274054   -0.819980
C      1.431776   -0.080828   -2.063772
O      2.141118    0.651753    0.042012
O      1.917526    1.020411    1.309515
H     -0.663093    1.458507    2.133591
H     -1.199028    3.112620    1.471584
H     -1.017413    2.347591   -0.779772
H     -0.993643   -0.009895   -1.243162
H     -1.658788   -0.730147    1.066380
H      0.065930   -0.703373    1.568233
H      0.610734   -2.409970   -0.174057
H     -1.118370   -2.409695   -0.715597
H     -0.684996   -2.982722    0.938282
H      0.680740   -0.389515   -2.779997
H      2.467050   -0.068901   -2.379965
18

C      1.214835    2.699378    0.027877
C      0.768797    1.582371    0.115553
C      0.220883    0.210500    0.224009
C      0.893671   -0.636122   -0.839404
C      2.195687   -0.943089   -0.785420
C     -1.313068    0.255175   -0.024493
C     -2.003185   -1.090209    0.220154
O      0.521332   -0.345014    1.492506
O     -0.021835    0.430281    2.416103
H      1.606282    3.679492   -0.049096
H      0.315138   -1.016633   -1.677099
H      2.821183   -0.588948    0.028387
H      2.642721   -1.552981   -1.563731
H     -1.517979    0.577784   -1.069859
H     -1.784835    1.010299    0.642774
H     -1.876050   -1.408401    1.276142
H     -3.089811   -0.989344    0.015213
H     -1.593766   -1.874542   -0.449617
18

C      1.933839    2.420790   -0.356734
C      1.090879    1.561399   -0.425753
C      0.060908    0.512212   -0.510200
C     -0.989181    0.704191    0.602283
C     -2.168961   -0.257308    0.456265
C      0.701009   -0.857940   -0.471457
C      1.454528   -1.244977    0.567846
O      0.472861   -1.717156   -1.552379
O      0.992122   -2.952286   -1.602162
H      2.673769    3.174860   -0.295880
H     -0.445594    0.638211   -1.492098
H     -0.527555    0.566302    1.604362
H     -1.385516    1.742826    0.555857
H     -2.648189   -0.133035   -0.538067
H     -2.922748   -0.041033    1.242370
H     -1.832809   -1.309113    0.573397
H      1.907693   -2.226607    0.598007
H      1.632945   -0.581337    1.404355
18

C      0.207919    2.702883    1.554489
C      0.079401    1.832405    0.730075
C     -0.078000    0.769880   -0.276471
C      1.144579   -0.116132   -0.293187
C      1.545386   -0.814802    0.777569
O      2.674378   -1.637516    0.747796
O      3.419859   -1.778257   -0.357512
C     -1.376883   -0.019966   -0.020130
C     -1.668636   -1.029513   -1.130689
H      0.320778    3.466598    2.278249
H     -0.160245    1.268025   -1.267062
H      1.706235   -0.179315   -1.216701
H      0.988734   -0.748868    1.703565
H     -1.325345   -0.553330    0.954088
H     -2.232129    0.689875    0.031379
H     -0.875923   -1.806041   -1.171205
H     -2.639363   -1.530150   -0.930702
H     -1.730745   -0.515775   -2.113550
18

C     -0.837304    2.780404    0.169166
C     -0.265602    1.731427    0.005430
C      0.432974    0.448637   -0.196359
C      1.552441    0.323934    0.810846
C      2.531520   -0.573645    0.660118
C     -0.543917   -0.747158   -0.088184
C     -1.591193   -0.718413   -1.212101
O     -1.182494   -0.726338    1.169623
O     -1.590687   -1.959186    1.408192
H     -1.339364    3.700757    0.312935
H      0.879123    0.469463   -1.215351
H      1.587208    0.987941    1.671529
H      3.328939   -0.635758    1.393456
H      2.547926   -1.246174   -0.192136
H      0.055466   -1.681319   -0.212804
H     -2.214237   -1.636796   -1.173667
H     -2.258727    0.162950   -1.106917
H     -1.092073   -0.680726   -2.203776
18

C     -0.580892    2.642680   -1.770844
C     -0.412139    1.833454   -0.893011
C     -0.205425    0.845749    0.178607
C     -1.487993    0.088967    0.441512
C     -2.097194   -0.653477   -0.491234
C      0.969733   -0.087714   -0.175802
C      1.334463   -1.025946    0.978276
O      2.448313   -1.796695    0.613069
O      2.705688   -2.571224    1.649501
H     -0.729094    3.352635   -2.541448
H      0.059090    1.411385    1.098392
H     -1.931636    0.149693    1.431048
H     -3.015215   -1.179588   -0.250843
H     -1.692544   -0.737747   -1.494869
H      1.863759    0.530548   -0.415409
H      0.727692   -0.690884   -1.078421
H      1.572574   -0.418728    1.881478
H      0.470819   -1.693109    1.200012
22

C      1.597361    1.947029   -0.484979
C      0.355477    1.142684   -0.744025
C     -0.049749    0.104478    0.026624
C      0.760187   -0.379755    1.214984
C      1.740616   -1.471106    0.796345
C     -1.320001   -0.646723   -0.334623
C     -2.550194    0.237002   -0.093312
O     -1.256792   -1.045692   -1.685065
O     -2.120421   -2.034054   -1.829864
H      2.492265    1.291406   -0.488988
H      1.718692    2.709843   -1.282297
H      1.516616    2.472220    0.489558
H     -0.241653    1.428431   -1.605873
H      0.077114   -0.791271    1.989063
H      1.311121    0.451864    1.701329
H      1.191875   -2.339809    0.373901
H      2.452287   -1.086613    0.036177
H      2.317192   -1.812342    1.681736
H     -1.403368   -1.540834    0.328887
H     -2.560833    0.599043    0.957147
H     -2.549521    1.111205   -0.778341
H     -3.478272   -0.347005   -0.268386
22

C     -1.030996    2.129029    0.578747
C      0.139592    1.196581    0.715341
C      0.219108   -0.047076    0.178426
C      1.498197   -0.832529    0.382522
C      2.601153   -0.333833   -0.546653
C     -0.916050   -0.720942   -0.592206
C     -1.944769   -1.316112    0.369595
O     -1.554244    0.164928   -1.479816
O     -0.718815    0.353468   -2.484995
H     -0.836160    3.049754    1.167599
H     -1.958711    1.667734    0.968124
H     -1.165121    2.429562   -0.480310
H      0.989216    1.575824    1.278050
H      1.832951   -0.748408    1.439667
H      1.329555   -1.913008    0.184512
H      3.518284   -0.940886   -0.394279
H      2.840872    0.729168   -0.331650
H      2.282115   -0.430397   -1.606514
H     -0.508608   -1.584745   -1.170023
H     -2.729300   -1.851197   -0.206598
H     -2.434375   -0.532476    0.980185
H     -1.453895   -2.044439    1.050276
22

C      1.906636   -0.399802   -1.184195
C      1.095744   -0.961958   -0.015064
C      0.018228    0.024007    0.503748
C     -1.437960   -0.078054   -0.024723
C     -1.512723    0.288999   -1.505573
O     -1.926572   -1.389144    0.136429
O     -2.291462   -1.504616    1.399780
C      0.489079    1.406243    0.955577
C      0.117667    0.361129    1.994815
H      2.570618   -1.193990   -1.585889
H      2.545525    0.443121   -0.850048
H      1.247922   -0.050209   -2.002950
H      1.805852   -1.246475    0.791032
H      0.601909   -1.899766   -0.346825
H     -2.099010    0.650163    0.505851
H     -1.026293    1.270845   -1.689065
H     -2.576160    0.360932   -1.818310
H     -1.025492   -0.490880   -2.127336
H     -0.254788    2.226610    0.867219
H      1.580580    1.604423    0.923117
H      1.000109   -0.023595    2.549019
H     -0.829409    0.602016    2.523392
22

C     -2.311148   -0.992477    0.504712
C     -0.786370   -0.966243    0.625975
C     -0.037203    0.019795   -0.310525
C      1.390513   -0.370741   -0.755027
C      2.330172   -0.556580    0.435019
C     -0.815976    0.887620   -1.307767
C     -0.294933    1.501224   -0.012645
O      0.779954    2.368786   -0.248644
O      1.161668    2.778580    0.943975
H     -2.612699   -1.287705   -0.522477
H     -2.745630   -0.004155    0.762151
H     -2.722075   -1.742331    1.213217
H     -0.421558   -1.995838    0.421001
H     -0.517168   -0.729446    1.677939
H      1.336259   -1.325453   -1.320561
H      1.829994    0.387094   -1.439575
H      3.350127   -0.796089    0.067392
H      1.985669   -1.393158    1.078423
H      2.381788    0.371683    1.040349
H     -1.921334    0.820131   -1.330388
H     -0.260218    1.213339   -2.213594
H     -1.099831    1.811963    0.691049
24

C     -3.369471   -0.421976   -0.360437
C     -2.186565   -1.089111    0.341610
C     -0.980143   -0.149995    0.499732
C     -0.223134    0.063278   -0.822361
C      0.910045    1.101377   -0.707929
C      2.049687    0.737336    0.267090
C      2.750613   -0.568432   -0.135503
O      2.983961    1.792486    0.254565
O      3.638518    1.736512    1.400302
H     -4.243305   -1.106790   -0.339719
H     -3.648591    0.520074    0.157601
H     -3.129560   -0.203699   -1.421107
H     -1.890133   -2.005407   -0.213899
H     -2.520388   -1.404671    1.354018
H     -0.293832   -0.616441    1.237368
H     -1.312883    0.826932    0.914003
H     -0.929579    0.438443   -1.591843
H      0.173862   -0.904227   -1.195161
H      0.469415    2.072740   -0.392484
H      1.341158    1.258700   -1.721236
H      1.614028    0.619817    1.286489
H      3.081427   -0.523601   -1.195089
H      2.073500   -1.436282    0.004096
H      3.641370   -0.737064    0.505588
24

C     -3.387051   -0.417977   -0.126591
C     -2.476861    0.809031   -0.072467
C     -1.048333    0.472036    0.383282
C     -0.246172   -0.275374   -0.698938
C      1.198883   -0.619711   -0.268766
C      2.070494    0.642702   -0.129799
C      3.548235    0.291410    0.035327
O      1.201574   -1.324680    0.952361
O      0.870181   -2.571221    0.670272
H     -4.427829   -0.095015   -0.339781
H     -3.376874   -0.953651    0.846390
H     -3.070151   -1.109914   -0.933657
H     -2.455804    1.302644   -1.068378
H     -2.913961    1.531845    0.650311
H     -0.540067    1.430643    0.617647
H     -1.087184   -0.127968    1.318308
H     -0.762767   -1.225770   -0.948517
H     -0.217514    0.334733   -1.628371
H      1.649860   -1.239691   -1.081473
H      1.961010    1.278732   -1.035251
H      1.751230    1.235336    0.753796
H      3.913016   -0.273458   -0.848850
H      4.143303    1.224288    0.128559
H      3.702782   -0.318970    0.950278
22

C     -2.997346    1.327607   -0.204299
C     -2.745019    0.022280   -0.055581
C     -1.480015   -0.620042   -0.568775
C     -0.258883   -0.102408    0.215899
C      1.025560   -0.862725   -0.153465
C      2.209379   -0.497974    0.755633
C      2.716662    0.924970    0.523227
O     -1.342425   -0.326017   -1.942594
O     -0.930999   -1.431397   -2.536297
H     -3.923842    1.747350    0.173690
H     -2.290195    1.982640   -0.703669
H     -3.485705   -0.600749    0.437679
H     -1.586025   -1.716478   -0.378283
H     -0.120977    0.980225    0.008093
H     -0.451449   -0.226643    1.304873
H      0.841046   -1.954661   -0.052436
H      1.296059   -0.661237   -1.212755
H      1.925347   -0.622583    1.823173
H      3.042754   -1.203133    0.546022
H      2.955952    1.082327   -0.549965
H      1.960509    1.669600    0.847349
H      3.639610    1.089052    1.118363
22

C     -3.398261    0.666290   -0.051988
C     -2.142753    0.879361    0.352466
C     -0.958318    0.507597   -0.498259
C     -0.253839   -0.752687    0.044315
C      1.091953   -0.990676   -0.687080
C      2.325873   -0.526899    0.108089
C      2.398500    0.988784    0.278260
O     -1.083130   -1.874882   -0.175674
O     -1.773878   -2.071593    0.932593
H     -3.609017    0.230823   -1.023952
H     -4.228121    0.925987    0.597106
H     -1.968124    1.291889    1.341849
H     -1.267344    0.338205   -1.554006
H     -0.262768    1.370953   -0.499184
H     -0.040269   -0.610764    1.133089
H      1.218870   -2.082377   -0.860342
H      1.093444   -0.518642   -1.694689
H      2.339359   -1.013576    1.107545
H      3.236770   -0.859298   -0.435717
H      2.305923    1.496130   -0.705473
H      1.598201    1.342412    0.960996
H      3.376930    1.262963    0.725937
22

C      3.629503   -0.070321    0.265224
C      2.868327   -0.501082   -0.745154
C      1.497404    0.062681   -1.000456
C      0.496844   -0.403192    0.066899
C     -0.905927    0.188526   -0.164086
C     -1.839367   -0.209864    0.991740
C     -3.216416    0.438002    0.857102
O     -1.436298   -0.312778   -1.373292
O     -1.396432    0.671811   -2.252224
H      3.274483    0.698689    0.944580
H      4.620516   -0.486512    0.413993
H      3.262447   -1.255371   -1.419908
H      1.159333   -0.285616   -1.999826
H      1.550397    1.173335   -1.021305
H      0.438101   -1.514445    0.056297
H      0.863248   -0.086053    1.068270
H     -0.821190    1.304141   -0.154107
H     -1.396082    0.111578    1.959800
H     -1.959905   -1.315253    1.016549
H     -3.717563    0.098429   -0.073983
H     -3.122755    1.544758    0.841083
H     -3.848670    0.148535    1.722804
22

C     -3.649553   -0.292838    0.524273
C     -2.956334   -0.673198   -0.553012
C     -1.684893    0.018690   -0.961499
C     -0.541568   -0.299958    0.009776
C      0.763926    0.372507   -0.437986
C      1.914781    0.086276    0.540980
C      3.167844    0.863530    0.122277
O      2.190860   -1.295546    0.541369
O      2.789458   -1.560848    1.687902
H     -4.571219   -0.802943    0.784622
H     -3.307896    0.527389    1.148306
H     -3.337027   -1.483206   -1.168226
H     -1.406519   -0.328436   -1.980247
H     -1.857437    1.116462   -1.006770
H     -0.397004   -1.402012    0.052414
H     -0.807857    0.060448    1.027654
H      1.040312    0.006681   -1.451920
H      0.598562    1.471295   -0.498133
H      1.599744    0.438001    1.553265
H      3.989957    0.679635    0.845752
H      2.958251    1.954444    0.106661
H      3.503610    0.543625   -0.887459
20

C      2.736265   -1.609176   -1.457162
C      2.409847   -0.655199   -0.796040
C      2.011393    0.507049    0.010677
C      0.545634    0.886029   -0.278112
C     -0.442288   -0.177644    0.226756
C     -1.891048    0.250256   -0.034290
C     -2.875689   -0.804169    0.462867
O      2.859593    1.579427   -0.321425
O      2.839671    2.408872    0.705813
H      3.022275   -2.446588   -2.037494
H      2.128530    0.222081    1.083222
H      0.317588    1.848366    0.230427
H      0.406866    1.041597   -1.371504
H     -0.294793   -0.327440    1.319064
H     -0.249608   -1.142498   -0.291178
H     -2.046398    0.401379   -1.124874
H     -2.098858    1.209929    0.487400
H     -2.706815   -1.768216   -0.062670
H     -2.757829   -0.956846    1.556887
H     -3.914336   -0.467209    0.261281
20

C      2.970608   -1.035873    1.598467
C      2.559527   -0.266329    0.766526
C      2.058082    0.671407   -0.247744
C      0.557091    0.967486   -0.057380
C     -0.296619   -0.273949   -0.383658
C     -1.787275   -0.021565   -0.117535
C     -2.618911   -1.265536   -0.416963
O      0.177200    2.016600   -0.919077
O      0.496829    3.143388   -0.309297
H      3.330969   -1.711563    2.328843
H      2.243653    0.250491   -1.259153
H      2.639750    1.613018   -0.156716
H      0.369555    1.240499    1.010672
H      0.034729   -1.130363    0.243570
H     -0.153779   -0.551200   -1.451728
H     -1.935355    0.261232    0.947488
H     -2.150743    0.812072   -0.756643
H     -2.298439   -2.109402    0.230542
H     -3.690512   -1.053031   -0.218218
H     -2.506364   -1.557381   -1.482905
20

C      3.354501    0.306398   -0.580701
C      2.514651    0.058431    0.247970
C      1.494040   -0.245221    1.258899
C      0.295927    0.717180    1.178846
C     -0.593656    0.568589   -0.081793
C     -1.246551   -0.823870   -0.165373
C     -2.338947   -0.870849   -1.232560
O      0.147296    0.806936   -1.256867
O      0.268939    2.116946   -1.368796
H      4.091022    0.524451   -1.308577
H      1.964831   -0.141003    2.259285
H      1.170341   -1.300483    1.156377
H     -0.338632    0.553837    2.077307
H      0.665027    1.764410    1.245213
H     -1.423131    1.311119    0.013301
H     -1.701589   -1.087260    0.814400
H     -0.482771   -1.591107   -0.414598
H     -3.141959   -0.140359   -0.997072
H     -1.914961   -0.640585   -2.232979
H     -2.784379   -1.887560   -1.263189
20

C      4.237326    1.026544    0.505441
C      3.285376    0.389254    0.129840
C      2.127159   -0.386713   -0.327557
C      0.826734    0.248493    0.171660
C     -0.393560   -0.553960   -0.301711
C     -1.708336    0.055654    0.212654
C     -2.891898   -0.834021   -0.183964
O     -1.872717    1.340326   -0.342559
O     -2.689612    1.997127    0.460276
H      5.072826    1.586102    0.835246
H      2.134394   -0.416305   -1.438091
H      2.217994   -1.423785    0.060295
H      0.757610    1.290519   -0.212177
H      0.836530    0.281377    1.284021
H     -0.302908   -1.598189    0.072056
H     -0.408684   -0.583196   -1.414029
H     -1.653591    0.098753    1.327471
H     -2.969635   -0.906145   -1.290039
H     -3.838031   -0.408888    0.212519
H     -2.766978   -1.853854    0.238646
20

C      2.524988   -1.269278    1.036931
C      2.369200   -0.530815   -0.065880
C      1.153222    0.328476   -0.277502
C     -0.091710   -0.530479   -0.557333
C     -1.358046    0.313917   -0.825248
C     -1.747204    1.120978    0.389119
C     -2.225371    0.543754    1.495968
O     -1.147874    1.193741   -1.905624
O     -1.263394    0.474862   -3.007173
H      1.767553   -1.279096    1.814898
H      3.420564   -1.867913    1.167369
H      3.155454   -0.526208   -0.815091
H      1.343733    0.995990   -1.145053
H      0.994492    0.966218    0.618990
H     -0.279319   -1.210785    0.301780
H      0.104059   -1.172995   -1.443716
H     -2.208762   -0.374339   -1.048814
H     -1.661598    2.203715    0.358916
H     -2.343975   -0.533567    1.559155
H     -2.506011    1.153825    2.348305
18

C     -2.306451   -2.061775   -0.322295
C     -1.988547   -0.901958   -0.236638
C     -1.599375    0.516308   -0.132743
C     -0.153345    0.640662    0.372612
C      0.871312    0.124957   -0.651184
C      2.278862    0.333818   -0.164300
C      2.788834   -0.383666    0.841125
O     -2.452055    1.170359    0.776138
O     -3.574898    1.421279    0.127491
H     -2.585054   -3.079890   -0.397449
H     -1.660355    0.987364   -1.142491
H      0.057945    1.714201    0.575249
H     -0.044881    0.088116    1.332630
H      0.743994    0.678049   -1.606887
H      0.710025   -0.955868   -0.855178
H      2.906802    1.065689   -0.663879
H      3.812876   -0.219602    1.160292
H      2.194311   -1.138044    1.347517
18

C      3.015606   -1.150014    0.728672
C      2.403780   -0.280054    0.161097
C      1.657164    0.780331   -0.530960
C      0.173615    0.791917   -0.126505
C     -0.555334   -0.455762   -0.671909
C     -1.987051   -0.519822   -0.212917
C     -2.306653   -0.787228    1.056711
O     -0.414283    1.955898   -0.666151
O     -1.308165    2.379233    0.208778
H      3.552204   -1.913940    1.227013
H      1.758863    0.642735   -1.628945
H      2.117912    1.754951   -0.262455
H      0.135174    0.790046    0.991573
H     -0.539565   -0.431726   -1.783356
H     -0.036988   -1.384646   -0.348752
H     -2.781008   -0.374413   -0.939486
H     -3.348695   -0.840067    1.354598
H     -1.536577   -0.957439    1.803006
18

C      3.019825    0.778480   -0.680145
C      2.333399   -0.061362   -0.154085
C      1.496091   -1.084599    0.485872
C      0.099330   -0.542775    0.820454
C     -0.735343   -0.193144   -0.430098
C     -2.066996    0.380353   -0.015413
C     -2.174385    1.604689    0.511027
O     -0.974156   -1.362683   -1.183230
O     -0.180079   -1.315705   -2.237369
H      3.621884    1.516002   -1.142137
H      1.424225   -1.972196   -0.176750
H      1.993658   -1.402925    1.426260
H     -0.442021   -1.313200    1.412842
H      0.210698    0.355152    1.468225
H     -0.208005    0.594833   -1.023005
H     -2.971290   -0.200643   -0.175067
H     -3.149304    1.993861    0.785920
H     -1.297532    2.225860    0.666712
16

C     -2.834953    1.013724   -0.729865
C     -2.141143    0.079508   -0.414980
C     -1.295061   -1.058666   -0.032279
C     -0.022607   -0.598871    0.692976
C      0.930914    0.212132   -0.205212
C      2.076396    0.668505    0.591709
C      3.016999    1.044089    1.245894
O      1.418319   -0.595282   -1.252712
O      0.761875   -0.248774   -2.344786
H     -3.443541    1.834126   -1.006307
H     -1.038860   -1.650276   -0.935853
H     -1.880063   -1.713772    0.647314
H      0.509669   -1.500927    1.068823
H     -0.313181    0.009458    1.579398
H      0.412730    1.131387   -0.570041
H      3.842507    1.373641    1.820209
22

C      3.573778    0.547703    0.843088
C      2.233625    0.561565    0.175826
C      1.599251   -0.581798   -0.122766
C      0.255731   -0.586622   -0.808145
C     -0.837353   -0.121916    0.172962
C     -2.210146   -0.016910   -0.504966
C     -3.262503    0.519007    0.461594
O     -0.017527   -1.904163   -1.234289
O     -0.505185   -1.823643   -2.458894
H      3.924506    1.588998    1.000987
H      3.501107    0.040006    1.828065
H      4.309358    0.013829    0.205031
H      1.779241    1.518154   -0.067632
H      2.075899   -1.531770    0.107771
H      0.314648    0.133018   -1.662680
H     -0.566346    0.877003    0.580825
H     -0.899058   -0.836647    1.023704
H     -2.145757    0.665549   -1.380330
H     -2.534108   -1.018769   -0.860205
H     -4.244782    0.576787   -0.052982
H     -2.984435    1.536438    0.810269
H     -3.359942   -0.155818    1.338648
22

C      2.896956    1.398586   -0.723659
C      1.773279    0.914117    0.138650
C      1.420784   -0.378857    0.147786
C      0.273342   -0.882293    0.983741
C     -0.908432   -1.350681    0.114657
C     -1.521598   -0.212869   -0.738896
C     -2.172981    0.895889    0.090406
O     -1.886747   -1.915633    0.957699
O     -2.615580   -2.721305    0.207109
H      3.027215    2.492806   -0.589689
H      3.840653    0.886921   -0.439359
H      2.671025    1.192034   -1.791175
H      1.241211    1.632307    0.756281
H      1.947225   -1.086436   -0.487554
H     -0.060773   -0.119240    1.719361
H      0.643104   -1.748294    1.573830
H     -0.506777   -2.127030   -0.581425
H     -0.745184    0.233151   -1.396642
H     -2.294993   -0.646977   -1.408771
H     -2.930621    0.475351    0.784464
H     -1.410130    1.456465    0.668385
H     -2.680981    1.611988   -0.589318
22

C      3.771283    0.758105   -0.257937
C      2.429215    0.243469    0.160750
C      1.655063   -0.439570   -0.694221
C      0.311127   -0.976567   -0.284539
C     -0.711836    0.156187   -0.116155
C     -2.093991   -0.383902    0.287027
C     -3.054768    0.778913    0.559993
O     -2.601716   -1.184721   -0.755364
O     -3.492249   -1.993356   -0.211021
H      3.657956    1.463734   -1.107920
H      4.249237    1.291538    0.590148
H      4.423068   -0.087504   -0.563467
H      2.088985    0.430088    1.175750
H      2.010836   -0.641270   -1.701320
H     -0.040249   -1.677596   -1.071999
H      0.413080   -1.548148    0.663980
H     -0.797644    0.720916   -1.071337
H     -0.351436    0.856634    0.669419
H     -1.970792   -0.972323    1.228457
H     -3.191563    1.392483   -0.356229
H     -2.659100    1.423966    1.373396
H     -4.044505    0.388925    0.878472
22

C      2.314652    0.996091   -0.990067
C      2.177339    0.543046    0.433820
C      1.336595   -0.427116    0.834790
C      0.401229   -1.192228   -0.082718
C     -1.061443   -0.873414    0.267142
C     -1.441287    0.575618   -0.074665
C     -2.909108    0.848589    0.240019
O      0.608535   -2.572689    0.095004
O      1.719631   -2.871817   -0.553143
H      3.066056    1.810906   -1.050207
H      2.656966    0.153889   -1.627480
H      1.343966    1.384225   -1.363664
H      2.793777    1.031507    1.182953
H      1.308639   -0.669595    1.893610
H      0.550222   -0.926920   -1.154858
H     -1.239794   -1.064525    1.348990
H     -1.719641   -1.559882   -0.310322
H     -0.815543    1.281808    0.512409
H     -1.265457    0.764703   -1.155988
H     -3.107814    0.688781    1.321242
H     -3.154261    1.901307   -0.014306
H     -3.563258    0.177715   -0.356679
22

C      2.754714    0.787549   -0.791716
C      2.636268    0.117677    0.546987
C      1.475972   -0.024029    1.212006
C      0.134969    0.424491    0.684793
C     -0.525826   -0.678646   -0.161661
C     -1.780575   -0.156798   -0.897680
C     -2.926728    0.228202    0.040327
O     -0.852997   -1.768418    0.671478
O     -0.963353   -2.824969   -0.112679
H      3.812803    0.762255   -1.126348
H      2.135976    0.261122   -1.546739
H      2.436728    1.848502   -0.718220
H      3.544237   -0.259213    1.008873
H      1.497861   -0.509878    2.183363
H      0.240252    1.361915    0.098133
H     -0.511506    0.657510    1.557565
H      0.211416   -0.989744   -0.939447
H     -1.509227    0.723596   -1.520143
H     -2.144699   -0.945470   -1.591178
H     -3.815858    0.509056   -0.562570
H     -2.647015    1.100540    0.666364
H     -3.203412   -0.625251    0.694371
22

C      2.682842    0.210791   -1.233925
C      2.714570    0.723515    0.177086
C      1.801474    0.401365    1.110409
C      0.602654   -0.476981    0.856456
C     -0.581520    0.351857    0.340656
C     -1.820241   -0.524293    0.091710
C     -3.014295    0.351825   -0.303598
O     -1.539864   -1.439709   -0.942259
O     -2.380864   -2.446611   -0.793666
H      3.541545    0.629142   -1.799423
H      2.765646   -0.896101   -1.241281
H      1.746241    0.521315   -1.739948
H      3.532948    1.378645    0.461474
H      1.923832    0.809154    2.109789
H      0.855552   -1.292357    0.146182
H      0.315003   -0.955364    1.817654
H     -0.300682    0.868573   -0.602362
H     -0.827381    1.129753    1.097730
H     -2.065732   -1.051130    1.045575
H     -3.915861   -0.278468   -0.455275
H     -3.236803    1.086460    0.499554
H     -2.799063    0.898620   -1.246655
20

C     -2.912436   -1.370944    0.545382
C     -2.623295   -0.103227    0.234080
C     -1.253010    0.304963   -0.244608
C     -0.251732    0.256095    0.926573
C      1.152071    0.567949    0.483163
C      1.856732   -0.288394   -0.269627
C      3.256015    0.031380   -0.694714
O     -1.335635    1.620108   -0.748349
O     -0.488972    1.700377   -1.758529
H     -2.160331   -2.150650    0.471984
H     -3.912563   -1.634936    0.873319
H     -3.410027    0.643419    0.300247
H     -0.949495   -0.423182   -1.036789
H     -0.259778   -0.747888    1.404891
H     -0.555189    0.997985    1.697410
H      1.605269    1.500892    0.808118
H      1.415714   -1.231266   -0.581570
H      3.660692   -0.800766   -1.307892
H      3.901952    0.166645    0.198411
H      3.264018    0.961439   -1.301500
20

C     -1.849310    1.203671    0.976074
C     -2.140879   -0.048232    0.610917
C     -1.433128   -0.732043   -0.529768
C     -0.107958   -1.385231   -0.082103
C      0.914025   -0.350515    0.322494
C      1.459033    0.499414   -0.561128
C      2.466231    1.518477   -0.127837
O      0.426625   -2.165222   -1.127057
O     -0.212203   -3.320681   -1.103744
H     -1.084600    1.775047    0.459268
H     -2.385467    1.667874    1.797279
H     -2.926269   -0.582529    1.137425
H     -2.108939   -1.525445   -0.914821
H     -1.264548   -0.018872   -1.366238
H     -0.303682   -2.018064    0.817486
H      1.219912   -0.307516    1.364807
H      1.170925    0.459978   -1.607898
H      2.790194    2.120521   -1.002352
H      3.353220    1.012877    0.308945
H      2.016819    2.196492    0.628249
20

C     -2.197272   -1.363956   -1.072649
C     -2.294330   -0.291279   -0.280384
C     -1.098673    0.569570    0.039383
C     -0.156681   -0.177953    1.003809
C      1.129361    0.578226    1.227881
C      2.205088    0.495796    0.424926
C      2.282107   -0.397839   -0.779580
O     -1.559683    1.756668    0.646122
O     -0.735850    2.721691    0.280317
H     -1.244546   -1.655920   -1.504353
H     -3.079025   -1.955541   -1.296235
H     -3.269408   -0.019644    0.114850
H     -0.578005    0.779932   -0.925632
H     -0.667834   -0.297249    1.984101
H      0.065057   -1.201344    0.632958
H      1.184017    1.233425    2.092596
H      3.078188    1.093297    0.670823
H      2.164362   -1.459486   -0.477780
H      3.273771   -0.280771   -1.264393
H      1.499357   -0.127621   -1.516759
20

C      2.657696    0.818471   -0.573638
C      2.369369   -0.277258    0.134860
C      1.009887   -0.490539    0.744558
C     -0.050190   -0.797318   -0.325061
C     -1.405424   -0.938186    0.336309
C     -2.252924    0.084084    0.550842
C     -1.985642    1.495904    0.115226
O      0.287381   -2.005217   -0.966203
O     -0.408972   -2.042470   -2.087636
H      1.910970    1.589049   -0.740233
H      3.651515    0.950670   -0.988662
H      3.144883   -1.018885    0.302215
H      1.069585   -1.343200    1.456186
H      0.727873    0.412848    1.327762
H     -0.060680    0.037838   -1.063898
H     -1.694332   -1.922675    0.694257
H     -3.189424   -0.121422    1.061283
H     -1.049920    1.873804    0.576186
H     -2.824220    2.148329    0.436595
H     -1.907429    1.546173   -0.990948
18

C     -1.957838   -1.972902    0.310022
C     -1.821728   -0.816851   -0.004433
C     -1.656741    0.591908   -0.389527
C     -0.478901    1.228931    0.372322
C      0.850106    0.686669   -0.085998
C      1.378870   -0.425398    0.443232
C      2.699547   -0.949719   -0.027820
O     -2.850718    1.269717   -0.081536
O     -2.890589    2.336938   -0.858115
H     -2.076265   -2.987502    0.586321
H     -1.455880    0.613463   -1.487365
H     -0.600054    1.092546    1.470332
H     -0.477699    2.323292    0.179930
H      1.389374    1.224277   -0.861664
H      0.851957   -0.961536    1.227698
H      2.646562   -1.191287   -1.110438
H      3.491787   -0.190669    0.143661
H      2.958210   -1.871876    0.533388
18

C     -3.043141    1.359380   -0.268340
C     -2.445853    0.317515   -0.373453
C     -1.716624   -0.952291   -0.501939
C     -0.432062   -0.952929    0.347960
C      0.563948    0.056265   -0.171294
C      1.704182    0.302001    0.488521
C      2.688975    1.307856   -0.021527
O      0.163837   -2.228523    0.302183
O     -0.465367   -2.972694    1.193189
H     -3.567080    2.274165   -0.175932
H     -1.471747   -1.127804   -1.571672
H     -2.388987   -1.769175   -0.164505
H     -0.686825   -0.667210    1.398350
H      0.352399    0.601892   -1.088355
H      1.926589   -0.230855    1.409266
H      3.045439    1.011133   -1.030543
H      3.559389    1.361650    0.665288
H      2.212929    2.309623   -0.077184
18

C      2.961791   -1.370212   -0.808128
C      2.209180   -0.560625   -0.326670
C      1.290357    0.425305    0.260709
C      0.133272    0.722147   -0.712191
C     -0.751989   -0.483866   -0.921448
C     -1.775159   -0.820576   -0.116318
C     -2.201070   -0.012245    1.075368
O      2.016661    1.602251    0.517641
O      1.347313    2.262929    1.444507
H      3.622080   -2.080902   -1.230972
H      0.901122   -0.015863    1.207142
H     -0.469487    1.579459   -0.344994
H      0.551215    1.030913   -1.695696
H     -0.540083   -1.121258   -1.775157
H     -2.340774   -1.717923   -0.350078
H     -2.514415    1.003902    0.757057
H     -1.375164    0.062284    1.811389
H     -3.064851   -0.505719    1.567850
18

C      3.497020   -0.153648   -0.117543
C      2.449555   -0.700614   -0.356107
C      1.171165   -1.367389   -0.647362
C     -0.021393   -0.650741    0.016861
C     -0.244368    0.718568   -0.590400
C     -1.310245    1.489436   -0.311482
C     -2.404457    1.082883    0.633005
O      0.196940   -0.512592    1.402558
O     -0.094421   -1.678860    1.948565
H      4.416290    0.326854    0.092047
H      1.025068   -1.406174   -1.748250
H      1.227944   -2.413193   -0.277983
H     -0.936631   -1.256094   -0.187213
H      0.478603    1.102158   -1.305815
H     -1.392777    2.455129   -0.801960
H     -2.885228    0.145308    0.283737
H     -1.997151    0.938901    1.655115
H     -3.175915    1.880069    0.672238
20

C      4.055137   -0.938767   -0.329099
C      2.752690   -0.294530   -0.160614
C      1.678869    0.235962   -0.021934
C      0.371351    0.881480    0.147392
C     -0.739803   -0.168440   -0.017408
C     -2.128743    0.416530    0.271842
C     -3.208844   -0.657710    0.180900
O      0.245456    1.883537   -0.835823
O     -0.297057    2.934387   -0.248492
H      4.230899   -1.642796    0.510127
H      4.070894   -1.495836   -1.288411
H      4.851637   -0.166514   -0.336871
H      0.346608    1.288006    1.187498
H     -0.718859   -0.573785   -1.053932
H     -0.552600   -1.009750    0.687574
H     -2.362492    1.216148   -0.463591
H     -2.146071    0.857703    1.292263
H     -3.225748   -1.102546   -0.836916
H     -4.201606   -0.205090    0.387206
H     -3.021719   -1.457991    0.928289
20

C      4.077675    0.291710    0.555959
C      2.703330   -0.039192    0.179844
C      1.570361   -0.310908   -0.129851
C      0.189781   -0.640728   -0.506744
C     -0.771535    0.495295   -0.116252
C     -2.226002    0.161878   -0.515625
C     -2.842421   -0.945717    0.340137
O     -0.368527    1.673654   -0.778763
O     -0.810012    2.686408   -0.055439
H      4.747267    0.135945   -0.314805
H      4.400125   -0.362376    1.392048
H      4.128179    1.352785    0.876017
H      0.151438   -0.815824   -1.603282
H     -0.085748   -1.580991    0.012989
H     -0.713737    0.622689    0.993057
H     -2.852675    1.071609   -0.391452
H     -2.272078   -0.129241   -1.587792
H     -2.358035   -1.921962    0.133576
H     -3.921596   -1.041394    0.096576
H     -2.745789   -0.703639    1.419802
20

C      3.518239   -1.002016    0.378830
C      2.380368   -0.084520    0.324640
C      1.441280    0.669972    0.279790
C      0.294750    1.586085    0.225780
C     -0.859881    0.997317   -0.596701
C     -1.486520   -0.258830    0.043448
C     -2.572922   -0.825002   -0.871086
O     -2.076572    0.074277    1.281153
O     -1.270630   -0.372152    2.227075
H      3.150516   -2.048527    0.357107
H      4.178888   -0.824069   -0.494503
H      4.088173   -0.829738    1.314953
H     -0.039840    1.821720    1.257595
H      0.628257    2.533513   -0.247867
H     -1.643682    1.778839   -0.706809
H     -0.487724    0.753343   -1.616964
H     -0.705362   -1.052799    0.137221
H     -3.017367   -1.731807   -0.408487
H     -3.378326   -0.076073   -1.030396
H     -2.141645   -1.109533   -1.854777
18

C     -3.242380   -0.406149    0.008066
C     -2.400482    0.487194   -0.522893
C     -0.959310    0.601309   -0.080900
C     -0.171832   -0.650382   -0.494108
C      1.256151   -0.492954   -0.190795
C      2.428386   -0.362974    0.058884
C      3.850523   -0.204243    0.362446
O     -0.886638    0.765698    1.317118
O     -1.213690    2.020772    1.564852
H     -2.915398   -1.093413    0.782174
H     -4.272208   -0.449291   -0.331077
H     -2.769109    1.168391   -1.284226
H     -0.501222    1.474861   -0.605290
H     -0.280743   -0.822411   -1.586635
H     -0.552456   -1.544263    0.044667
H      4.420544   -0.093760   -0.582930
H      3.996161    0.699211    0.989690
H      4.213704   -1.097596    0.910966
18

C     -3.204575    0.004728   -0.328348
C     -2.386075    0.629895    0.523067
C     -0.972392    0.165482    0.748261
C     -0.073145    0.439192   -0.469702
C      1.255104   -0.137445   -0.229884
C      2.346013   -0.611677   -0.032957
C      3.669336   -1.187185    0.206647
O      0.079069    1.826113   -0.664935
O     -0.844319    2.194125   -1.533937
H     -2.868386   -0.857823   -0.895665
H     -4.223047    0.355585   -0.458796
H     -2.759365    1.477403    1.090362
H     -0.561275    0.695668    1.635531
H     -0.984184   -0.922962    0.980687
H     -0.484649   -0.072917   -1.372152
H      3.880998   -1.960208   -0.560479
H      4.436531   -0.387946    0.147681
H      3.694361   -1.650027    1.214620
16

C     -3.875017    0.973069    0.077236
C     -2.685603    0.842179    0.225500
C     -1.237299    0.683815    0.405985
C     -0.742334   -0.480890   -0.464265
C      0.721764   -0.582595   -0.433251
C      1.924204   -0.665904   -0.407463
C      3.383183   -0.765739   -0.374561
O     -0.991125    0.418438    1.767933
O      0.160432    0.990461    2.068100
H     -4.918950    1.087796   -0.052982
H     -0.765098    1.637377    0.066137
H     -1.176462   -1.439226   -0.105454
H     -1.053991   -0.326044   -1.520174
H      3.770300   -0.230638    0.516891
H      3.679903   -1.833492   -0.322625
H      3.806097   -0.308609   -1.292720
16

C     -3.795448    0.925035   -0.209146
C     -2.590079    0.915567   -0.231908
C     -1.122138    0.905909   -0.259632
C     -0.568088   -0.488650    0.067512
C      0.893569   -0.414656    0.179642
C      2.094210   -0.353743    0.272167
C      3.550826   -0.279194    0.384154
O     -0.883642   -1.396583   -0.962977
O     -1.994168   -2.013751   -0.603598
H     -4.853479    0.932883   -0.189164
H     -0.779852    1.227755   -1.267064
H     -0.759309    1.644274    0.488223
H     -0.949921   -0.823924    1.062257
H      3.840640   -0.291320    1.455000
H      3.910317    0.659440   -0.085517
H      4.006562   -1.149042   -0.132103
22

C     -3.451736   -0.650630   -0.347876
C     -1.955632   -0.653634   -0.048413
C     -1.416971    0.774920    0.091569
C      0.048439    0.771530    0.428858
C      0.976388    0.413026   -0.472046
C      2.449604    0.432355   -0.138685
C      2.789389   -0.711211    0.816904
O      3.210457    0.275636   -1.312472
O      3.206008    1.447236   -1.921725
H     -3.813356   -1.695922   -0.445747
H     -4.009617   -0.157721    0.476677
H     -3.653330   -0.114299   -1.299620
H     -1.778013   -1.214134    0.895554
H     -1.427563   -1.179019   -0.873640
H     -1.580605    1.342802   -0.850594
H     -1.965732    1.294538    0.906900
H      0.353668    1.096250    1.419971
H      0.668474    0.127169   -1.474749
H      2.708548    1.391580    0.370879
H      3.877791   -0.703900    1.038444
H      2.238636   -0.596853    1.774863
H      2.525154   -1.689717    0.360829
22

C      2.350934    1.544692    0.445134
C      2.352104    0.046000    0.733725
C      1.116455   -0.614561    0.189183
C     -0.089891   -0.412430    0.743053
C     -1.342751   -1.069448    0.205703
C     -1.697739   -0.543975   -1.196762
C     -2.032383    0.948354   -1.195265
O     -1.170501   -2.465777    0.138715
O     -1.265879   -2.916439    1.376359
H      3.293879    1.995402    0.820030
H      1.496594    2.039396    0.954121
H      2.280014    1.725722   -0.648833
H      3.245166   -0.408998    0.254139
H      2.423363   -0.128281    1.829258
H      1.218778   -1.286968   -0.658019
H     -0.181581    0.234861    1.611052
H     -2.196956   -0.820055    0.879936
H     -0.861207   -0.732247   -1.904227
H     -2.584550   -1.099519   -1.572484
H     -2.870470    1.156428   -0.496680
H     -1.146494    1.547446   -0.895833
H     -2.336884    1.260397   -2.216423
22

C      3.485712   -0.205557    0.143516
C      2.290627    0.685147    0.467082
C      1.065906    0.255422   -0.292763
C     -0.094918    0.909075   -0.144090
C     -1.333851    0.503326   -0.899133
C     -1.914181   -0.835348   -0.408269
C     -2.415783   -0.723729    1.038977
O     -2.984079   -1.189353   -1.253465
O     -3.138652   -2.496146   -1.143017
H      3.724071   -0.151720   -0.940378
H      4.371202    0.136657    0.719520
H      3.266950   -1.259178    0.420285
H      2.084661    0.632534    1.558167
H      2.539254    1.735774    0.202637
H      1.121188   -0.593377   -0.970465
H     -0.148868    1.770373    0.516636
H     -1.087806    0.427132   -1.981038
H     -2.100699    1.301166   -0.790627
H     -1.104968   -1.603265   -0.455383
H     -1.581046   -0.462158    1.723063
H     -2.837829   -1.695340    1.371777
H     -3.206891    0.052409    1.116968
22

C     -2.838403    1.035641   -0.765419
C     -1.783378    0.909293    0.329759
C     -1.120153   -0.471094    0.304449
C     -0.079103   -0.568516    1.393125
C      1.243164   -0.746938    1.201749
C      1.922414   -0.893563   -0.140893
C      2.043104    0.473576   -0.826274
O      3.209603   -1.425174    0.072123
O      3.596920   -1.954634   -1.074109
H     -3.305347    2.041920   -0.717362
H     -3.630726    0.269175   -0.628245
H     -2.372902    0.907891   -1.765991
H     -2.268755    1.074033    1.316766
H     -1.015035    1.699066    0.181892
H     -0.702014   -0.661638   -0.703547
H     -1.889200   -1.250437    0.494182
H     -0.432116   -0.485435    2.417440
H      1.867694   -0.815775    2.088841
H      1.321706   -1.590439   -0.770837
H      2.647466    1.165713   -0.201360
H      1.045501    0.925689   -0.997318
H      2.539559    0.361647   -1.813088
22

C      2.968788    0.224359   -0.625107
C      1.657242    0.962108   -0.380902
C      1.079892    0.579955    0.959234
C      0.080628   -0.302201    1.166239
C     -0.729506   -1.008828    0.098696
C     -1.759354   -0.059671   -0.553996
C     -2.844134    0.379232    0.430161
O      0.132383   -1.562457   -0.868687
O     -0.532886   -2.539322   -1.457651
H      3.389320    0.527963   -1.606926
H      2.799788   -0.873347   -0.634856
H      3.705189    0.473318    0.168842
H      1.857433    2.054704   -0.376884
H      0.964420    0.763221   -1.220197
H      1.570938    0.994412    1.835385
H     -0.173332   -0.528866    2.198319
H     -1.287362   -1.825318    0.618328
H     -1.265599    0.843967   -0.965864
H     -2.255262   -0.582545   -1.399980
H     -3.582758    1.021356   -0.094378
H     -2.401350    0.963563    1.264165
H     -3.374479   -0.505606    0.841940
22

C     -2.797142    0.726868   -0.583209
C     -1.773747   -0.295399   -1.067412
C     -1.416173   -1.260342    0.034206
C     -0.450306   -1.053945    0.948977
C      0.483363    0.131394    0.957859
C      1.715213   -0.125512    0.075271
C      2.599049    1.125780    0.029287
O      2.446002   -1.206340    0.608352
O      3.172615   -1.695566   -0.379618
H     -3.053360    1.417565   -1.413959
H     -2.390260    1.322949    0.260124
H     -3.724281    0.213128   -0.250084
H     -0.876387    0.221810   -1.464862
H     -2.220178   -0.869363   -1.907417
H     -2.007269   -2.168312    0.113132
H     -0.306788   -1.807982    1.717668
H     -0.047087    1.051145    0.633541
H      0.816464    0.304005    2.004584
H      1.363842   -0.349343   -0.959987
H      2.964066    1.380999    1.047251
H      2.027016    1.986661   -0.378163
H      3.475346    0.949801   -0.629659
20

C      3.571293    0.349015    0.511953
C      2.471834   -0.394566    0.592788
C      1.271301   -0.066283   -0.192168
C      0.167826   -0.813365   -0.103523
C     -1.081354   -0.483379   -0.884263
C     -2.210750   -0.062987    0.069740
C     -1.925821    1.270509    0.762514
O     -1.500192   -1.623365   -1.595245
O     -0.705380   -1.724535   -2.645062
H      3.615304    1.217467   -0.133836
H      4.443429    0.090203    1.098197
H      2.468331   -1.255404    1.251313
H      1.286459    0.797786   -0.847104
H      0.145845   -1.669194    0.562048
H     -0.904178    0.363584   -1.591511
H     -2.375596   -0.850160    0.838274
H     -3.152260    0.042287   -0.512471
H     -1.031985    1.188854    1.416191
H     -1.758815    2.070016    0.009738
H     -2.795290    1.553519    1.392426
20

C      3.656259   -0.127971   -0.027908
C      2.509904   -0.800501    0.014662
C      1.264257   -0.154147    0.456943
C      0.115189   -0.833118    0.498605
C     -1.167741   -0.193920    0.957108
C     -1.815215    0.706325   -0.118568
C     -2.202952   -0.097870   -1.362266
O     -0.946557    1.747508   -0.500150
O     -1.016401    2.663455    0.448281
H      3.706484    0.914457    0.261969
H      4.561175   -0.622087   -0.356934
H      2.501613   -1.842200   -0.284497
H      1.284501    0.887388    0.757278
H      0.095932   -1.882179    0.225910
H     -0.982102    0.394604    1.882004
H     -1.885316   -0.997985    1.229889
H     -2.763866    1.121632    0.298796
H     -2.880578   -0.934011   -1.086757
H     -1.300935   -0.509837   -1.862819
H     -2.733653    0.560458   -2.082454
20

C      3.654811    0.010686   -0.530030
C      2.340029   -0.168291   -0.440117
C      1.583274    0.337377    0.722966
C      0.259642    0.191780    0.874086
C     -0.631034   -0.510978   -0.124034
C     -2.120259   -0.336571    0.240599
C     -2.603951    1.100994    0.043593
O     -0.305298   -1.881663   -0.120242
O     -0.668709   -2.360931   -1.295782
H      4.205389    0.530622    0.244356
H      4.194594   -0.366367   -1.389035
H      1.838737   -0.694739   -1.241553
H      2.125011    0.860024    1.503268
H     -0.186991    0.608469    1.769705
H     -0.452407   -0.054061   -1.127630
H     -2.736273   -0.995617   -0.408864
H     -2.296023   -0.647383    1.293958
H     -2.457624    1.416062   -1.011439
H     -3.686278    1.163225    0.283642
H     -2.056638    1.797363    0.712552
20

C      3.310075    0.238495    0.882684
C      2.113638    0.234987    0.301733
C      1.664334   -0.921799   -0.499412
C      0.474734   -1.003395   -1.112698
C     -0.599784    0.052320   -1.067848
C     -1.524561   -0.132624    0.147313
C     -2.674520    0.879246    0.091344
O     -0.789062    0.051122    1.334441
O     -1.446715   -0.581102    2.288903
H      3.985213   -0.602743    0.784448
H      3.625048    1.093074    1.467450
H      1.481567    1.101863    0.434932
H      2.341753   -1.760927   -0.610961
H      0.262834   -1.897977   -1.686284
H     -1.207036   -0.053056   -1.993429
H     -0.165325    1.073968   -1.093905
H     -1.953581   -1.162858    0.092925
H     -3.257302    0.750563   -0.845709
H     -3.361421    0.723764    0.949886
H     -2.279890    1.917078    0.134188
18

C      4.367599   -0.313726   -0.455949
C      3.166433   -0.290996   -0.555676
C      1.733566   -0.263468   -0.675568
C      0.956790   -0.579928    0.362895
C     -0.545105   -0.573728    0.256755
C     -1.061531    0.875923    0.186298
C     -2.573670    0.938785   -0.019848
O     -1.071355   -1.210529    1.401159
O     -2.056389   -1.990090    0.993789
H      5.422065   -0.333713   -0.368263
H      1.296474    0.016035   -1.626066
H      1.413552   -0.877886    1.301072
H     -0.815425   -1.108896   -0.687810
H     -0.576810    1.407590   -0.661490
H     -0.800698    1.414711    1.123766
H     -2.862812    0.381868   -0.936452
H     -3.104619    0.510495    0.856158
H     -2.888064    1.997553   -0.134758
18

C      4.145336    0.175339    0.436435
C      3.032700   -0.073610    0.044886
C      1.705656   -0.370057   -0.423009
C      0.759039   -0.772492    0.426301
C     -0.632472   -1.099677   -0.041101
C     -1.421784    0.149735   -0.472567
C     -1.675079    1.083652    0.720035
O     -2.652688   -0.270504   -1.013552
O     -3.078482    0.707128   -1.792486
H      5.122052    0.393877    0.780310
H      1.489584   -0.262716   -1.478608
H      0.992306   -0.896570    1.478103
H     -1.177283   -1.616219    0.779169
H     -0.568912   -1.811457   -0.893369
H     -0.819978    0.693373   -1.240082
H     -2.254036    0.557644    1.508993
H     -2.251381    1.973874    0.390955
H     -0.714577    1.438681    1.149600
18

C      2.115819   -0.890636   -2.028779
C      2.106441   -0.050234   -1.164355
C      2.098995    0.955477   -0.132216
C      0.988561    1.349357    0.506824
C     -0.398470    0.801029    0.259983
C     -0.516279   -0.640466    0.792273
C     -1.955798   -1.149893    0.758028
O     -0.683752    0.848384   -1.122031
O     -1.930962    1.263542   -1.247796
H      2.122935   -1.628547   -2.787222
H      3.041380    1.422361    0.123603
H      1.088280    2.133377    1.248323
H     -1.092987    1.445897    0.853390
H      0.117317   -1.329888    0.195676
H     -0.160862   -0.673679    1.845812
H     -2.317745   -1.222186   -0.289080
H     -2.621448   -0.472358    1.333977
H     -2.001423   -2.161535    1.213603
18

C      2.857097    0.767179    1.042560
C      2.292272   -0.153189    0.506690
C      1.616452   -1.254298   -0.131900
C      0.504892   -1.104982   -0.862212
C     -0.190646    0.214652   -1.095047
C     -1.428335    0.395917   -0.191281
C     -1.032673    0.562605    1.277515
O     -2.301391   -0.704121   -0.307111
O     -2.967604   -0.539737   -1.435104
H      3.351892    1.575688    1.512982
H      2.031100   -2.246065   -0.006167
H      0.049542   -1.992155   -1.285438
H      0.502684    1.073530   -0.966451
H     -0.517895    0.242781   -2.156340
H     -1.944772    1.339811   -0.489374
H     -0.558148   -0.363231    1.665889
H     -1.937551    0.773090    1.886205
H     -0.326916    1.412526    1.394596
20

C      2.229619    0.483684    2.292894
C      2.352310    0.121556    1.012168
C      1.433595    0.667326   -0.054797
C      0.055300    0.076327    0.092884
C     -0.967840    0.517927   -0.654089
C     -2.352662   -0.049992   -0.509273
C     -2.430595   -1.471245   -1.059828
O      1.929925    0.335573   -1.329622
O      2.912664    1.180860   -1.581604
H      1.456762    1.180111    2.604089
H      2.906609    0.080349    3.038865
H      3.140207   -0.573435    0.735235
H      1.351172    1.775179    0.062703
H     -0.116643   -0.717399    0.816818
H     -0.809277    1.325613   -1.363915
H     -2.655068   -0.041951    0.560392
H     -3.065114    0.590107   -1.072566
H     -1.767110   -2.150083   -0.483151
H     -3.473273   -1.844016   -0.977688
H     -2.130581   -1.486491   -2.129516
20

C      2.937736   -1.077375   -0.138111
C      2.597285   -0.120153   -1.006071
C      1.684481    1.009822   -0.621951
C      0.252142    0.555287   -0.608220
C     -0.303243    0.009522    0.485184
C     -1.729741   -0.476789    0.487257
C     -2.695136    0.713880    0.455288
O     -1.944536   -1.233645    1.655142
O     -2.985671   -2.010030    1.416621
H      2.564206   -1.068533    0.880934
H      3.602105   -1.877938   -0.446559
H      2.998864   -0.153453   -2.014679
H      1.785330    1.815128   -1.380249
H      1.980140    1.439561    0.360549
H     -0.331572    0.657175   -1.519230
H      0.293024   -0.110627    1.386122
H     -1.879894   -1.104099   -0.424500
H     -2.541201    1.360589    1.345808
H     -3.745294    0.353139    0.454362
H     -2.539025    1.318539   -0.463258
18

C      3.329775   -0.687822   -1.077765
C      2.568261   -0.074657   -0.372160
C      1.638653    0.673196    0.490671
C      0.235733    0.524473   -0.032545
C     -0.414817   -0.648965    0.025098
C     -1.817127   -0.799484   -0.496363
C     -2.823523   -0.085166    0.401407
O      1.984848    2.036846    0.489044
O      3.008192    2.166966    1.313768
H      3.997955   -1.226101   -1.697169
H      1.671855    0.254456    1.524331
H     -0.267860    1.396355   -0.443028
H      0.085718   -1.525012    0.429177
H     -1.881391   -0.397552   -1.530769
H     -2.074331   -1.879884   -0.531021
H     -3.850385   -0.252216    0.013415
H     -2.626031    1.007680    0.416781
H     -2.765526   -0.483111    1.437140
18

C      3.015758    1.088267    1.648712
C      2.614520    0.515079    0.666896
C      2.125900   -0.181740   -0.528171
C      0.671694   -0.524304   -0.379960
C     -0.277580    0.426367   -0.378708
C     -1.746845    0.095496   -0.252701
C     -2.057119   -0.456793    1.138498
O     -2.128853   -0.850658   -1.222901
O     -2.211482   -0.199623   -2.368713
H      3.367578    1.591469    2.510640
H      2.712512   -1.115033   -0.659637
H      2.278358    0.459309   -1.422310
H      0.391129   -1.571143   -0.302379
H      0.007464    1.469440   -0.488330
H     -2.337794    1.035005   -0.368038
H     -3.149111   -0.635488    1.235066
H     -1.749628    0.272004    1.919002
H     -1.526504   -1.417657    1.309688
20

C      2.827350    0.506461    1.323455
C      2.669532    0.606848   -0.188622
C      1.280424    0.343714   -0.577362
C      0.136944    0.126685   -0.891877
C     -1.258643   -0.137625   -1.267325
C     -1.978962   -0.908714   -0.144594
C     -2.148634   -0.070123    1.123394
O     -1.255763   -0.900153   -2.449608
O     -2.429999   -0.711700   -3.023335
H      2.179699    1.253995    1.830288
H      3.883884    0.706579    1.600191
H      2.555324   -0.512402    1.674164
H      3.331951   -0.134667   -0.683019
H      2.954691    1.625393   -0.526666
H     -1.751446    0.850267   -1.429755
H     -1.419366   -1.838683    0.099855
H     -2.989973   -1.207575   -0.496702
H     -1.159578    0.189643    1.556367
H     -2.719730   -0.650783    1.878182
H     -2.707706    0.862840    0.897408
20

C      3.164504   -0.603852   -0.476452
C      2.605985    0.800014   -0.279642
C      1.251969    0.739632    0.280085
C      0.137925    0.686985    0.737770
C     -1.222068    0.618642    1.292029
C     -2.119067   -0.356461    0.510979
C     -2.358779    0.128516   -0.926735
O     -1.527084   -1.635916    0.504820
O     -2.498373   -2.500911    0.277229
H      3.217263   -1.139117    0.496331
H      4.188177   -0.539243   -0.901731
H      2.523868   -1.180228   -1.178735
H      2.571817    1.327928   -1.256096
H      3.261057    1.368719    0.413832
H     -1.667545    1.636584    1.284398
H     -1.153535    0.284704    2.349337
H     -3.101305   -0.379084    1.041388
H     -2.773776    1.159049   -0.921973
H     -3.088967   -0.536224   -1.434716
H     -1.412065    0.120262   -1.507679
18

C      3.790437    0.981990    0.532706
C      3.236466   -0.211007    0.717804
C      1.833048   -0.415195    0.481854
C      0.655900   -0.585492    0.283784
C     -0.777085   -0.791235    0.041705
C     -1.403003    0.524367   -0.448916
C     -2.868711    0.351903   -0.842326
O     -1.374072   -1.194169    1.253152
O     -2.241868   -2.144543    0.957780
H      4.848221    1.121074    0.714271
H      3.200307    1.827843    0.200430
H      3.843854   -1.042799    1.050105
H     -0.859342   -1.564533   -0.760071
H     -0.845711    0.891291   -1.339560
H     -1.330395    1.298892    0.346511
H     -3.256135    1.307169   -1.255113
H     -2.971475   -0.436686   -1.617903
H     -3.480435    0.081129    0.043799
18

C      3.458734    0.523673    0.877134
C      3.093302   -0.393338   -0.012245
C      1.707570   -0.585511   -0.342866
C      0.544599   -0.744289   -0.617932
C     -0.874346   -0.934085   -0.949074
C     -1.730011    0.255854   -0.486239
C     -1.787297    0.336307    1.046803
O     -3.031479    0.090654   -0.999270
O     -3.583583    1.290029   -1.026169
H      4.505486    0.658702    1.116096
H      2.723958    1.144893    1.375244
H      3.843260   -1.003829   -0.498412
H     -1.235867   -1.876080   -0.483343
H     -0.959334   -1.039891   -2.051963
H     -1.263843    1.190001   -0.885049
H     -2.414569    1.197590    1.359682
H     -2.225652   -0.593492    1.468034
H     -0.770928    0.482812    1.469579
16

C      4.341714   -1.803682    1.189065
C      3.299099   -1.375990    0.761598
C      2.077994   -0.875087    0.261038
C      1.034902   -0.447250   -0.166064
C     -0.234921    0.074172   -0.686228
C     -1.098124    0.570938    0.484858
C     -2.383135    1.243946    0.006654
O     -0.891855   -0.969323   -1.368836
O     -1.418651   -0.444490   -2.459969
H      5.257212   -2.179230    1.564423
H      0.019974    0.934188   -1.351827
H     -0.521368    1.310666    1.083673
H     -1.361662   -0.281045    1.150081
H     -2.937025    1.647474    0.880380
H     -3.036328    0.511498   -0.512581
H     -2.147826    2.083213   -0.681979
16

C      4.785494   -0.577569    0.153721
C      3.633822   -0.231472    0.072708
C      2.284974    0.173731   -0.022127
C      1.132870    0.519052   -0.102887
C     -0.270824    0.938924   -0.200875
C     -1.213873   -0.258911   -0.022458
C     -2.668260    0.184363   -0.216049
O     -1.046245   -0.791816    1.271625
O     -1.468698   -2.041785    1.222851
H      5.796752   -0.881481    0.224860
H     -0.427335    1.401410   -1.199042
H     -0.471208    1.704407    0.579421
H     -0.963444   -1.013424   -0.807856
H     -2.948172    0.941522    0.547527
H     -3.348737   -0.687771   -0.118882
H     -2.807116    0.620818   -1.228249
22

C     -2.103288    1.101201    0.013222
C     -1.503595   -0.232053    0.482966
C     -1.539889   -1.317598   -0.592040
C     -0.019720   -1.417513   -0.552176
C      0.032264   -0.342949    0.537126
C      0.844308    0.913776    0.149821
C      2.349747    0.700116    0.329188
O      2.816014   -0.256145   -0.585753
O      4.108693   -0.377096   -0.352627
H     -1.695045    1.412937   -0.971153
H     -1.899413    1.891989    0.764832
H     -3.203755    0.992640   -0.086091
H     -1.972891   -0.577702    1.431136
H     -1.912761   -0.970369   -1.581206
H     -2.032893   -2.248648   -0.236162
H      0.438972   -1.113317   -1.518604
H      0.330821   -2.407762   -0.187680
H      0.360006   -0.764824    1.514174
H      0.641252    1.217212   -0.900232
H      0.541534    1.751054    0.814425
H      2.555436    0.373103    1.374224
H      2.864203    1.671945    0.152610
22

C     -1.233686    0.915703   -1.308499
C     -1.295396    0.360570    0.123257
C     -1.892130   -1.046718    0.167672
C     -0.590892   -1.590048    0.742975
C      0.001170   -0.178636    0.768240
C      1.344092   -0.049914    0.008398
C      1.928068    1.356921    0.197981
O      2.246597   -0.994311    0.538981
O      3.182598   -1.181462   -0.373720
H     -0.793101    0.187175   -2.020543
H     -0.660169    1.862184   -1.337384
H     -2.265552    1.139425   -1.652116
H     -1.831840    1.056864    0.805704
H     -2.126630   -1.483513   -0.828547
H     -2.734241   -1.123580    0.889958
H     -0.721069   -2.018684    1.760765
H     -0.082745   -2.279106    0.032259
H      0.097562    0.174777    1.820519
H      1.180922   -0.242330   -1.075664
H      1.206551    2.139877   -0.106151
H      2.195287    1.521501    1.263877
H      2.844605    1.473306   -0.417962
22

C      2.513531    0.073004   -0.386671
C      1.176434    0.403053    0.289681
O      1.370873    0.487331    1.682204
O      1.832376    1.699883    1.927739
C      0.144115   -0.712496   -0.000378
C     -0.362681   -0.738225   -1.445627
C     -1.794838   -0.557398   -0.958178
C     -1.304390   -0.505395    0.488409
C     -1.647859    0.818410    1.187046
H      2.387401   -0.008928   -1.486705
H      3.250891    0.878462   -0.185092
H      2.919422   -0.885086    0.003039
H      0.802340    1.367488   -0.128843
H      0.523855   -1.712369    0.310939
H     -0.025535    0.123120   -2.063440
H     -0.201897   -1.723867   -1.934516
H     -2.424177   -1.451933   -1.159008
H     -2.246568    0.391410   -1.324007
H     -1.666533   -1.379168    1.074964
H     -1.351997    1.698037    0.578231
H     -1.150219    0.866250    2.177278
H     -2.744546    0.868419    1.352936
22

C      1.594272   -0.143315   -1.375957
C      1.501706    0.530482    0.003370
C      0.269252    0.195203    0.905402
O      0.385500    0.829742    2.161649
O      0.228688    2.124452    1.952939
C      0.049740   -1.310279    1.122671
C     -1.341584   -1.210493    0.502735
C     -1.172639    0.301254    0.345622
C     -1.376185    0.817783   -1.083486
H      2.660324   -0.333100   -1.623223
H      1.200376    0.534240   -2.161480
H      1.054746   -1.107834   -1.431152
H      1.557416    1.629715   -0.148961
H      2.411302    0.249414    0.578156
H     -0.004465   -1.589493    2.198636
H      0.730642   -1.982380    0.561038
H     -1.407511   -1.765185   -0.458910
H     -2.147003   -1.477247    1.221521
H     -1.846437    0.842004    1.048659
H     -2.459862    0.988613   -1.254012
H     -1.038341    0.090569   -1.848006
H     -0.849936    1.785855   -1.217213
22

C      2.723076    0.238642   -0.036768
C      1.376375    0.528982    0.625833
C      0.178455    0.050095   -0.238213
O      0.205932    0.525114   -1.570229
O      0.241136    1.843863   -1.511871
C      0.006007   -1.475372   -0.217396
C     -1.336416   -1.328469    0.487216
C     -1.191388    0.192889    0.466426
C     -2.306061    0.878961   -0.335444
H      3.543750    0.578617    0.629366
H      2.807683    0.780781   -1.001959
H      2.843982   -0.850009   -0.217242
H      1.292985    1.622432    0.805894
H      1.353154    0.032490    1.621141
H      0.746700   -2.015685    0.412490
H     -0.103017   -1.916874   -1.232718
H     -2.178469   -1.718927   -0.126584
H     -1.316383   -1.739219    1.520441
H     -1.113981    0.610152    1.495655
H     -3.277991    0.727467    0.179699
H     -2.382498    0.463812   -1.363406
H     -2.113029    1.970258   -0.392330
22

C      2.080778   -1.420727   -0.609033
C      1.523165   -0.101112   -0.079817
C      0.122278    0.198323   -0.655494
C     -0.388529    1.596101   -0.290176
O     -0.688228    2.347293   -1.439231
O     -1.074123    3.531291   -1.004231
C     -1.637441    0.983004    0.342569
C     -1.117494   -0.420169    0.026501
C     -0.913054   -1.267470    1.291383
H      3.080838   -1.605792   -0.163517
H      1.416986   -2.269110   -0.350655
H      2.190189   -1.374350   -1.713515
H      1.528914   -0.100615    1.028712
H      2.214386    0.707251   -0.403621
H      0.094918    0.034691   -1.757469
H      0.259039    2.134889    0.442308
H     -2.570646    1.218748   -0.215319
H     -1.708544    1.213540    1.428619
H     -1.768265   -0.942402   -0.709858
H     -1.905848   -1.535309    1.710231
H     -0.386448   -2.210253    1.045518
H     -0.352872   -0.717822    2.076094
22

C      2.447608    0.077511   -1.009943
C      1.228702   -0.639200   -0.433627
C     -0.067739    0.162078   -0.694300
C     -1.387452   -0.450575   -0.186750
C     -1.296370   -1.744398    0.635213
C     -1.629759    0.789299    0.675485
C     -0.306980    1.391076    0.198816
O      0.622422    1.505312    1.248052
O      0.326551    2.630111    1.870253
H      3.358643   -0.528156   -0.819901
H      2.578682    1.071885   -0.534137
H      2.333561    0.210493   -2.106875
H      1.391252   -0.813353    0.651089
H      1.145110   -1.629099   -0.931113
H     -0.161148    0.429488   -1.771490
H     -2.140006   -0.538569   -1.002012
H     -0.943485   -2.576759   -0.008589
H     -0.613179   -1.633349    1.503475
H     -2.304888   -2.005874    1.018860
H     -2.504833    1.378972    0.325121
H     -1.650236    0.586881    1.769821
H     -0.426454    2.326227   -0.397449
22

C      2.269145   -1.359532   -0.149416
C      1.651796    0.037056   -0.171989
C      0.236710    0.023735   -0.788401
C     -0.340437    1.424596   -1.000671
C     -1.558178    1.063865   -0.154340
O     -2.721409    1.010062   -0.939831
O     -3.705874    0.744146   -0.103249
C     -0.971201   -0.329160    0.105573
C     -0.724451   -0.581768    1.600152
H      3.278325   -1.311391    0.311128
H      1.646615   -2.063533    0.437295
H      2.372308   -1.748985   -1.184637
H      1.660378    0.475140    0.846319
H      2.302706    0.680534   -0.803104
H      0.212859   -0.550189   -1.742709
H      0.262636    2.233393   -0.531108
H     -0.587014    1.626150   -2.066695
H     -1.655537    1.724916    0.739690
H     -1.583496   -1.142488   -0.344947
H     -0.198995    0.267006    2.085285
H     -0.144479   -1.514073    1.745512
H     -1.702407   -0.709481    2.110142
22

C      2.483761   -0.430543   -1.173838
C      0.960057   -0.348626   -1.127962
C      0.486581    0.617197   -0.021166
C      0.578703    0.029485    1.390337
C     -0.926854    0.205097    1.575791
O     -1.563644   -1.039629    1.731187
O     -2.795088   -0.769576    2.119355
C     -1.033688    0.793175    0.159204
C     -1.952253    0.033411   -0.813400
H      2.918348    0.572268   -1.372548
H      2.881528   -0.817778   -0.212026
H      2.794386   -1.118881   -1.987875
H      0.602264    0.021785   -2.112323
H      0.553453   -1.370446   -0.967609
H      0.994249    1.606055   -0.089117
H      0.898754   -1.036032    1.420221
H      1.165575    0.678673    2.076345
H     -1.160066    0.938406    2.384236
H     -1.307887    1.871146    0.197343
H     -3.010246    0.182112   -0.512110
H     -1.741031   -1.055904   -0.824923
H     -1.826903    0.438607   -1.839120
22

C      2.554230    0.389493   -0.782869
C      1.050860    0.648848   -0.728685
C      0.405910   -0.057649    0.481534
C      0.218340   -1.564241    0.292700
C     -1.286981   -1.410677    0.476897
C     -1.124651    0.104279    0.647940
C     -1.892046    0.898911   -0.431305
O     -1.490358    0.490050    1.954424
O     -1.050572    1.723769    2.122282
H      2.991802    0.921542   -1.653732
H      2.757305   -0.696756   -0.893057
H      3.043736    0.761632    0.142279
H      0.888777    1.744161   -0.637378
H      0.595897    0.305211   -1.682478
H      0.951959    0.164089    1.426761
H      0.478570   -1.932885   -0.724091
H      0.686698   -2.155030    1.110014
H     -1.648478   -1.920731    1.397241
H     -1.850481   -1.712235   -0.433897
H     -1.716453    0.484895   -1.446474
H     -1.582334    1.964769   -0.422754
H     -2.981728    0.848555   -0.223410
22

C      2.770227    0.178237   -0.094478
C      1.378295    0.769522   -0.307549
C      0.281747   -0.143999    0.278356
C      0.049278   -1.416970   -0.540542
C     -1.387271   -0.992188   -0.815087
C     -1.178556    0.285615    0.005490
C     -2.074359    0.318928    1.262282
O     -1.321589    1.423189   -0.822079
O     -1.079436    2.484104   -0.074312
H      2.868603   -0.793494   -0.622272
H      2.963033    0.027040    0.989020
H      3.534930    0.875896   -0.496276
H      1.344560    1.753233    0.206367
H      1.214669    0.936134   -1.394986
H      0.465122   -0.374305    1.352591
H      0.648932   -1.480506   -1.475276
H      0.105489   -2.335446    0.083689
H     -2.124573   -1.703661   -0.381099
H     -1.562565   -0.795069   -1.896024
H     -1.744961    1.123535    1.952776
H     -3.128776    0.505182    0.967899
H     -2.022797   -0.644978    1.813455
22

C      2.734363    0.181426    0.501034
C      1.239216    0.451588    0.649148
C      0.403437   -0.711676    0.074677
C      0.332353   -0.726787   -1.454110
C     -1.185375   -0.600176   -1.393822
C     -1.130469   -0.577793    0.134398
C     -1.709937    0.707430    0.749240
O     -3.107625    0.684737    0.628947
O     -3.536031    1.798938    1.190580
H      3.007100    0.082793   -0.570972
H      3.309370    1.025790    0.936212
H      3.013142   -0.750759    1.037052
H      1.011845    0.563843    1.730715
H      0.999074    1.408562    0.137955
H      0.730064   -1.696115    0.480122
H      0.659380   -1.699006   -1.883282
H      0.805002    0.153849   -1.942527
H     -1.545929    0.347174   -1.852497
H     -1.700289   -1.504638   -1.785351
H     -1.597650   -1.487569    0.574519
H     -1.427894    0.742466    1.825504
H     -1.303149    1.605924    0.232462
22

C     -1.507078    1.268519    1.136038
C     -1.006521   -0.036169    0.510359
C     -2.003169   -0.670781   -0.458506
C     -1.021461   -0.468201   -1.606731
C     -0.022903    0.181369   -0.647447
C      1.290180   -0.609850   -0.512458
C      2.224969    0.036418    0.509940
O      3.415850   -0.701607    0.579477
O      4.167964   -0.087805    1.472699
H     -1.877781    1.972111    0.359377
H     -0.678514    1.753302    1.693893
H     -2.332577    1.048423    1.845058
H     -0.653060   -0.761597    1.277157
H     -2.941062   -0.088147   -0.596026
H     -2.177845   -1.746804   -0.239083
H     -0.676152   -1.432563   -2.041345
H     -1.404372    0.247901   -2.366421
H      0.148947    1.252212   -0.902155
H      1.083822   -1.661847   -0.213744
H      1.798797   -0.627343   -1.500986
H      1.728389    0.050165    1.506734
H      2.443579    1.082293    0.194167
22

C     -2.049994    1.256450    0.760589
C     -1.180494    0.010114    0.571498
C     -1.701325   -0.938363   -0.507090
C     -0.441420   -0.700235   -1.330326
C      0.082588    0.265432   -0.262812
C      1.379757   -0.197469    0.432180
C      2.576712   -0.033614   -0.512687
O      1.576144    0.592106    1.582240
O      2.365171   -0.097910    2.385222
H     -2.250983    1.759162   -0.210274
H     -1.532143    1.970714    1.434602
H     -3.017404    0.968504    1.223026
H     -0.988934   -0.518044    1.532815
H     -2.618787   -0.581365   -1.025581
H     -1.776286   -1.987288   -0.145646
H      0.161499   -1.627501   -1.447724
H     -0.657323   -0.187413   -2.292976
H      0.154256    1.309399   -0.645916
H      1.275644   -1.277102    0.701976
H      2.433564   -0.636352   -1.434047
H      2.704274    1.033443   -0.794876
H      3.505483   -0.382669   -0.014192
22

C      2.578000    0.324154   -0.462180
C      1.356395    0.358597    0.463498
O      1.451795   -0.666375    1.428276
O      2.259194   -0.222083    2.373732
C      0.055375    0.209868   -0.359125
C     -0.229898   -1.202729   -0.879048
C     -1.494653   -1.264325   -0.029747
C     -1.216030    0.143273    0.498294
C     -2.280525    1.167381    0.093486
H      2.499411    1.119738   -1.233540
H      3.504716    0.500540    0.123504
H      2.659307   -0.662232   -0.966075
H      1.312937    1.361726    0.951686
H     -0.010540    0.967597   -1.173493
H     -0.454587   -1.211926   -1.967996
H      0.518444   -1.968028   -0.578490
H     -1.427059   -2.034513    0.769445
H     -2.415992   -1.347064   -0.648028
H     -1.026498    0.150217    1.595077
H     -2.478012    1.133602   -0.999946
H     -1.935873    2.187251    0.365006
H     -3.225907    0.955330    0.635663
22

C      1.646652   -1.118563   -1.551230
C      0.929669    0.208055   -1.313605
C      0.408689    0.310350    0.133996
C     -0.404412    1.575530    0.459638
O     -0.614318    2.423515   -0.643176
O      0.383108    3.286670   -0.630548
C     -1.636382    0.716054    0.732335
C     -0.838002   -0.545135    0.402379
C     -0.678869   -1.497381    1.590919
H      2.502080   -1.225285   -0.850647
H      0.948516   -1.970077   -1.407921
H      2.033735   -1.150259   -2.591425
H      1.651199    1.032577   -1.497806
H      0.095358    0.307110   -2.042519
H      1.222276    0.159779    0.879822
H     -0.059732    2.103389    1.380767
H     -2.461645    0.890772    0.006997
H     -1.966906    0.778761    1.792954
H     -1.236839   -1.062589   -0.498938
H      0.039489   -2.301871    1.327369
H     -0.304532   -0.961261    2.489856
H     -1.659136   -1.960142    1.830783
22

C      2.500424    0.533016   -0.846434
C      1.151289   -0.111081   -1.153796
C      0.253960   -0.162555    0.095294
C     -1.142765   -0.726537   -0.197137
C     -1.549834   -1.864680    0.743375
C     -1.765556    0.619796    0.172823
C     -0.378367    1.187811    0.461752
O     -0.231438    1.487953    1.826093
O      0.969446    2.019103    1.949245
H      3.020377   -0.026081   -0.039583
H      2.364652    1.589125   -0.532167
H      3.135858    0.515180   -1.756776
H      1.328104   -1.148933   -1.510101
H      0.653496    0.453145   -1.973298
H      0.756825   -0.657683    0.957858
H     -1.312303   -0.985914   -1.266670
H     -2.621518   -2.110034    0.588586
H     -0.942467   -2.766489    0.518721
H     -1.395478   -1.582942    1.807604
H     -2.244516    1.112102   -0.701688
H     -2.423985    0.586190    1.069804
H     -0.126204    2.039507   -0.213503
22

C      2.569614   -0.486462   -0.361719
C      1.492392    0.521529   -0.753000
C      0.343209    0.535493    0.269979
C     -0.796558    1.478867   -0.118946
C     -1.752793    0.290222   -0.224023
O     -2.179713    0.069808   -1.544319
O     -3.178141    0.908383   -1.744120
C     -0.613253   -0.660146    0.152303
C     -0.839364   -1.385870    1.481579
H      2.983261   -0.239200    0.639143
H      2.151237   -1.514853   -0.340299
H      3.394406   -0.455451   -1.104385
H      1.951341    1.533044   -0.792103
H      1.111880    0.277550   -1.769558
H      0.699261    0.732356    1.307096
H     -1.075306    2.164507    0.710735
H     -0.641026    2.004058   -1.087998
H     -2.586166    0.315933    0.518094
H     -0.352948   -1.367851   -0.667310
H      0.088124   -1.921880    1.773539
H     -1.657472   -2.127439    1.365882
H     -1.111985   -0.672598    2.289430
22

C      2.589312   -0.665791   -0.129663
C      1.614511    0.321312   -0.765992
C      0.374105    0.530373    0.120019
C     -0.668760    1.454581   -0.512341
C     -1.676713    0.305498   -0.548648
O     -2.781170    0.540690    0.289809
O     -3.600219    1.309233   -0.401822
C     -0.631247   -0.629764    0.075402
C     -0.976463   -1.183519    1.463808
H      2.915922   -0.297156    0.866029
H      2.113189   -1.662117   -0.012390
H      3.483502   -0.775225   -0.778703
H      2.131913    1.296371   -0.895915
H      1.321404   -0.048720   -1.773367
H      0.638832    0.862138    1.150016
H     -0.969011    2.278229    0.172468
H     -0.403070    1.808129   -1.533182
H     -1.957680   -0.010553   -1.580855
H     -0.343239   -1.442774   -0.628423
H     -0.103082   -1.737920    1.867009
H     -1.834047   -1.884017    1.383481
H     -1.237989   -0.368998    2.173261
22

C      2.283815   -0.905367    0.553631
C      1.866461    0.461745   -0.006335
C      0.402315    0.590307   -0.493787
C     -0.000780   -0.379383   -1.606126
C     -1.057380   -0.991210   -0.691663
C     -0.680070   -0.006453    0.418530
C     -1.798793    0.986757    0.760419
O     -2.823928    0.315093    1.443138
O     -3.734841    1.229786    1.714657
H      3.387699   -0.925544    0.672037
H      1.843177   -1.076055    1.556647
H      1.998436   -1.736165   -0.121293
H      2.042003    1.227567    0.779391
H      2.534488    0.710318   -0.859111
H      0.185849    1.641204   -0.793015
H      0.784414   -1.103018   -1.909666
H     -0.457619    0.146970   -2.472815
H     -2.088604   -0.862494   -1.088957
H     -0.816498   -2.042042   -0.419352
H     -0.300459   -0.519602    1.325682
H     -1.371311    1.785050    1.408526
H     -2.198375    1.452536   -0.170538
20

C     -0.289234    1.088414   -1.443489
C     -0.788348   -0.267290   -0.921757
C     -2.098689   -0.158009   -0.142029
C     -1.410242   -0.700364    1.105044
C     -0.096878   -0.834920    0.331662
C      1.035749   -0.019089    0.907667
C      2.253575   -0.069454    0.373208
O      3.287335    0.677783    0.926958
O      4.513846    0.633975    0.392473
H     -0.251144    1.847430   -0.632666
H     -0.974659    1.453354   -2.237027
H      0.722946    0.971899   -1.883719
H     -0.853145   -1.023725   -1.735295
H     -2.463052    0.883998   -0.001863
H     -2.878676   -0.850410   -0.527796
H     -1.820578   -1.685504    1.417730
H     -1.391081    0.048747    1.927122
H      0.184881   -1.904491    0.204232
H      0.872133    0.597392    1.783555
H      2.445260   -0.689735   -0.494917
20

C      2.364708   -0.896047   -0.084845
C      1.364781   -0.086214   -0.447941
O      1.140967    0.219559   -1.796588
O      1.918876   -0.264638   -2.775317
C      0.438546    0.472566    0.614864
C     -0.308582    1.747783    0.212775
C     -1.642281    1.028573    0.384061
C     -0.908918   -0.250143    0.789501
C     -1.195063   -1.436199   -0.143227
H      2.524608   -1.148253    0.956170
H      3.035801   -1.323991   -0.817298
H      0.953798    0.612868    1.592715
H     -0.145704    2.085261   -0.833177
H     -0.176585    2.564611    0.955894
H     -2.246905    1.451696    1.215882
H     -2.202356    0.949330   -0.574060
H     -1.097094   -0.512937    1.854448
H     -2.233629   -1.792056    0.021994
H     -1.087341   -1.152694   -1.211633
H     -0.497628   -2.269077    0.085781
20

C     -0.574635   -2.434758   -0.460450
C      0.217046   -1.518684   -1.032867
C      0.542279   -0.172462   -0.396098
O      1.431371    0.587197   -1.188926
O      2.580322   -0.064515   -1.206659
C      0.968518   -0.227023    1.081490
C     -0.280007    0.555481    1.476905
C     -0.711845    0.630966    0.010620
C     -0.782432    2.068844   -0.521653
H     -1.035272   -2.260296    0.506414
H     -0.769018   -3.374366   -0.967183
H      0.644386   -1.748577   -2.004633
H      1.896072    0.348953    1.293952
H      0.985956   -1.249835    1.516749
H     -0.979470   -0.052696    2.091150
H     -0.034481    1.539859    1.933729
H     -1.669436    0.091352   -0.164452
H     -0.923567    2.051590   -1.622755
H      0.142113    2.637542   -0.282640
H     -1.647901    2.591430   -0.062695
20

C      2.496898    0.162243   -0.978712
C      1.257260   -0.320273   -0.848466
C      0.481807   -0.156457    0.451847
O      1.135398   -0.772524    1.539186
O      1.121187   -2.071250    1.299767
C      0.179214    1.313045    0.773749
C     -1.315943    1.019923    0.785385
C     -1.040604   -0.444227    0.445441
C     -1.673718   -0.874437   -0.884394
H      2.973677    0.702626   -0.166501
H      3.042636    0.016696   -1.905299
H      0.837298   -0.873072   -1.680892
H      0.451509    2.021876   -0.040005
H      0.553137    1.632125    1.771767
H     -1.760507    1.142051    1.797372
H     -1.860946    1.581073   -0.005960
H     -1.353051   -1.115878    1.276448
H     -1.315174   -1.888424   -1.159568
H     -1.432671   -0.160309   -1.700953
H     -2.777409   -0.914805   -0.770213
20

C      1.676391   -0.436050   -1.944238
C      0.926449    0.407310   -1.230257
C      0.745816    0.207104    0.262322
C     -0.288075   -0.853531    0.685994
C     -1.112426   -1.511497   -0.430793
C     -1.072553    0.217385    1.446006
C     -0.065468    1.279733    1.011834
O     -0.674868    2.236314    0.180172
O      0.186602    3.230655    0.082122
H      2.159671   -1.287179   -1.473909
H      1.807621   -0.278627   -3.009838
H      0.471650    1.248122   -1.742774
H      1.725003    0.043263    0.766274
H      0.152791   -1.609864    1.372937
H     -1.927739   -2.116031    0.019251
H     -1.565101   -0.751008   -1.102995
H     -0.465525   -2.188393   -1.026756
H     -1.054438    0.047255    2.544855
H     -2.097869    0.398241    1.051739
H      0.472069    1.716800    1.887148
20

C      2.419420   -1.116631   -0.186518
C      1.570790   -0.159068   -0.568476
C      0.550550    0.404819    0.396058
C     -0.727261   -0.429051    0.610037
C     -0.859197   -1.729056   -0.197200
C     -1.565990    0.713900    0.037328
C     -0.297855    1.535736   -0.196800
O     -0.252916    2.682500    0.614155
O     -0.983138    3.590175   -0.004764
H      2.385043   -1.522545    0.820067
H      3.154549   -1.502082   -0.885387
H      1.645234    0.230960   -1.579437
H      1.019036    0.697839    1.363257
H     -0.935915   -0.592681    1.690762
H     -0.135990   -2.481160    0.181160
H     -1.884037   -2.137796   -0.073329
H     -0.676028   -1.556245   -1.279582
H     -2.083024    0.466751   -0.916283
H     -2.242983    1.159758    0.799214
H     -0.100287    1.743878   -1.275171
20

C      2.587380    1.009971    0.747587
C      1.716028    0.261484    0.065755
C      0.478296   -0.291061    0.742456
C     -0.529448    0.793163    1.133060
C     -1.607290    0.114539    0.291498
O     -2.032242    0.953070   -0.755227
O     -3.112429    0.385917   -1.256834
C     -0.597410   -0.964882   -0.133717
C     -0.330967   -1.058410   -1.645300
H      2.415152    1.255718    1.791248
H      3.482688    1.382502    0.260422
H      1.949056    0.025697   -0.965830
H      0.746273   -0.930657    1.613346
H     -0.266440    1.809351    0.761468
H     -0.767680    0.774176    2.219085
H     -2.438571   -0.276315    0.925595
H     -0.881746   -1.958898    0.278095
H      0.517338   -1.749681   -1.832565
H     -0.100052   -0.065612   -2.086632
H     -1.227937   -1.470073   -2.153510
20

C      2.127461   -0.109763    1.718189
C      1.455531   -0.749202    0.757741
C      0.863347    0.007203   -0.410783
C      0.183009   -0.890821   -1.446930
C     -1.142154   -0.168390   -1.216396
O     -1.529139    0.555703   -2.356048
O     -2.697924    1.090568   -2.060071
C     -0.476958    0.724152   -0.161863
C     -1.107242    0.562275    1.228953
H      2.249573    0.968857    1.689158
H      2.558095   -0.666923    2.543736
H      1.365905   -1.830173    0.814333
H      1.610775    0.677519   -0.891988
H      0.122968   -1.963455   -1.158558
H      0.592973   -0.739263   -2.470058
H     -1.933451   -0.857473   -0.835886
H     -0.432601    1.793135   -0.469347
H     -0.509061    1.119112    1.979924
H     -2.134390    0.983684    1.219234
H     -1.166718   -0.506747    1.526662
20

C      2.881360    0.230250   -0.426907
C      1.592774    0.484046   -0.669211
C      0.507270   -0.283312    0.055692
C      0.285750    0.248176    1.472890
C     -1.146148    0.630573    1.118837
C     -0.957303    0.070348   -0.295427
C     -1.857009   -1.157963   -0.551547
O     -1.118796    1.092744   -1.257264
O     -0.860082    0.558490   -2.437203
H      3.652913    0.787640   -0.948127
H      3.174937   -0.530115    0.290687
H      1.351169    1.256586   -1.390591
H      0.697556   -1.380664    0.044848
H      0.904033    1.135746    1.735535
H      0.328463   -0.560047    2.235486
H     -1.296223    1.732929    1.134945
H     -1.892428    0.083946    1.737238
H     -1.543575   -1.682836   -1.478328
H     -2.913647   -0.834190   -0.660600
H     -1.791014   -1.882346    0.289048
20

C      2.761937   -0.120162    0.410373
C      1.510440    0.335649    0.511554
C      0.493701    0.049495   -0.573221
C      0.107117   -1.427179   -0.664987
C     -1.354727   -1.071874   -0.423091
C     -0.985664    0.410297   -0.287372
C     -1.350647    0.965503    1.105870
O     -1.573591    1.157009   -1.329278
O     -0.980455    2.336700   -1.330530
H      3.069243   -0.723145   -0.438892
H      3.488770    0.109857    1.182677
H      1.261380    0.953541    1.366366
H      0.838972    0.434084   -1.559529
H      0.522273   -2.056655    0.153609
H      0.278927   -1.849392   -1.679242
H     -1.747471   -1.536504    0.508652
H     -1.987775   -1.286924   -1.312461
H     -0.975645    0.302601    1.915125
H     -2.454928    1.037059    1.199490
H     -0.921857    1.980040    1.244884
20

C      2.586777    0.975183    0.141766
C      1.332826    0.861690   -0.304438
C      0.690036   -0.498866   -0.470415
C      0.508721   -1.262862    0.843275
C     -0.987728   -1.385800    0.578571
C     -0.832297   -0.569471   -0.706783
C     -1.643422    0.742678   -0.710332
O     -1.464639    1.462786    0.483452
O     -2.189017    2.557645    0.355307
H      3.161033    0.097349    0.422609
H      3.046902    1.954222    0.227892
H      0.815526    1.765854   -0.603093
H      1.241217   -1.111877   -1.218576
H      0.719221   -0.654516    1.751102
H      1.024538   -2.247887    0.838742
H     -1.600556   -0.902421    1.370434
H     -1.290809   -2.436127    0.374189
H     -1.068446   -1.182855   -1.605145
H     -2.718924    0.481608   -0.832456
H     -1.330958    1.353666   -1.587007
20

C     -2.151376   -0.429235    0.449138
C     -0.915230   -0.138250   -0.406372
C     -0.997002    1.184879   -1.166647
C      0.191589    1.717381   -0.374688
C      0.271552    0.400841    0.401335
C      1.545070   -0.370417    0.168377
C      1.707651   -1.588035    0.694420
O      2.877939   -2.328756    0.509283
O      3.907104   -1.859802   -0.210592
H     -1.957339   -1.313594    1.091756
H     -3.016350   -0.651608   -0.210402
H     -2.406409    0.437207    1.097160
H     -0.657751   -0.989027   -1.077488
H     -1.926968    1.765154   -0.975561
H     -0.763516    1.065213   -2.247245
H     -0.089124    2.573438    0.277198
H      1.067540    1.929592   -1.026567
H      0.058352    0.546131    1.484806
H      2.341493    0.075453   -0.414045
H      0.912776   -2.026567    1.285226
20

C     -2.314147    0.351335    0.522907
C     -1.155047    0.103423   -0.447580
C     -0.559148    1.388846   -1.019023
C      0.765038    1.084780   -0.330017
C      0.177446   -0.202082    0.254599
C      0.854500   -1.452837   -0.255182
C      2.071699   -1.879030    0.118493
O      2.909212   -1.243959    1.045996
O      2.554521   -0.152188    1.735086
H     -2.036189    1.093621    1.302362
H     -2.593266   -0.602237    1.018278
H     -3.194023    0.731671   -0.037381
H     -1.433617   -0.614547   -1.251166
H     -0.473276    1.357683   -2.127267
H     -1.030588    2.321610   -0.637175
H      1.590587    0.919771   -1.057912
H      1.008935    1.832280    0.456152
H      0.091718   -0.181929    1.364001
H      0.322387   -2.066453   -0.972462
H      2.443259   -2.789758   -0.333617
20

C      2.572586   -0.861578   -0.211124
C      1.520370   -0.103684   -0.537017
O      1.466172    0.566099   -1.766297
O      2.457797    0.485659   -2.665008
C      0.361230    0.031894    0.424219
C     -0.090531    1.478985    0.628932
C     -1.437526    1.154356   -0.007140
C     -0.993357   -0.293266   -0.217301
C     -1.818902   -1.305647    0.582284
H      2.612286   -1.383126    0.737012
H      3.411595   -0.975797   -0.884252
H      0.525581   -0.482744    1.399295
H      0.484778    2.230942    0.044710
H     -0.188161    1.740807    1.705323
H     -2.282924    1.274919    0.706166
H     -1.588642    1.692093   -0.968645
H     -0.934836   -0.561679   -1.296375
H     -1.889710   -1.013356    1.652482
H     -2.843271   -1.367738    0.158614
H     -1.344534   -2.307138    0.514122
20

C      2.681085   -0.847476    0.565988
C      1.533957   -0.936375   -0.111773
C      0.271100   -0.290461    0.412173
C      0.199236    1.235852    0.248653
O      1.308540    1.772689   -0.430014
O      1.129817    3.079550   -0.433665
C     -1.013096    1.081670   -0.670143
C     -0.933279   -0.438686   -0.528477
C     -2.163610   -1.052761    0.146089
H      2.734960   -0.296650    1.500293
H      3.576556   -1.327209    0.184588
H      1.516014   -1.506756   -1.035948
H      0.050643   -0.605862    1.457462
H     -0.029584    1.749756    1.211835
H     -1.930242    1.531940   -0.229933
H     -0.817779    1.416096   -1.712983
H     -0.700943   -0.931002   -1.499414
H     -1.972836   -2.125499    0.359246
H     -3.038157   -0.975305   -0.533531
H     -2.402382   -0.533511    1.099555
20

C      2.827240   -0.684382    0.002194
C      1.576798   -0.942062   -0.389038
C      0.402620   -0.260113    0.270813
C     -0.943992   -0.565036   -0.400696
C     -2.018862   -1.041905    0.580692
C     -1.085529    0.907471   -0.786423
C      0.261020    1.212064   -0.129193
O      0.124117    2.032123    1.003355
O      0.053538    3.267525    0.546448
H      3.660987   -1.190192   -0.473749
H      3.027045    0.030267    0.795071
H      1.415771   -1.671205   -1.177847
H      0.395345   -0.417754    1.373881
H     -0.875346   -1.223010   -1.295912
H     -1.766952   -2.061816    0.939736
H     -2.096161   -0.361255    1.456227
H     -3.002283   -1.078728    0.066652
H     -1.940937    1.425799   -0.297901
H     -1.053848    1.057124   -1.887674
H      1.039431    1.565083   -0.847540
20

C      2.922036    0.500394    0.020427
C      1.742708    0.358928   -0.589676
C      0.595931   -0.345832    0.093992
C     -0.039882    0.483800    1.210998
C     -1.356195    0.531661    0.434383
O     -1.666850    1.831094   -0.000485
O     -2.236872    2.428040    1.028469
C     -0.721913   -0.289364   -0.691779
C     -1.373179   -1.662894   -0.880130
H      3.740603    0.999637   -0.487718
H      3.078154    0.122134    1.026313
H      1.628041    0.740480   -1.600146
H      0.872411   -1.370218    0.432567
H      0.421618    1.487154    1.352069
H     -0.135460   -0.091979    2.157235
H     -2.202074    0.017761    0.950505
H     -0.660000    0.271939   -1.651663
H     -1.447683   -2.210091    0.084676
H     -0.768466   -2.266180   -1.589370
H     -2.392928   -1.536463   -1.300667
20

C      2.527398   -0.400766   -1.594474
C      1.199276   -0.300538   -1.498970
C      0.508006   -0.408155   -0.161171
C      0.707217    0.825867    0.721466
C     -0.794604    1.108796    0.678395
O     -1.395708    0.981448    1.943595
O     -1.175747    2.125165    2.562783
C     -0.999591   -0.122109   -0.216796
C     -1.851447   -1.246919    0.386430
H      3.009398   -0.332861   -2.564306
H      3.140178   -0.549449   -0.710359
H      0.618897   -0.163818   -2.406848
H      0.765339   -1.352140    0.370822
H      1.296590    1.638408    0.241201
H      1.073684    0.558614    1.737160
H     -1.056101    2.057054    0.152305
H     -1.368427    0.169640   -1.225781
H     -1.471484   -1.554867    1.384465
H     -1.830017   -2.128262   -0.288400
H     -2.902858   -0.905110    0.488484
20

C      1.760918    2.152745    0.047844
C      1.845234    0.828152   -0.097692
C      0.669395    0.030126   -0.606013
C      0.893733   -1.483135   -0.587469
C     -0.225317   -1.642211    0.434954
C     -0.446336   -0.129103    0.434392
C     -1.825925    0.294731   -0.084412
O     -2.802491   -0.041855    0.864725
O     -3.951097    0.363761    0.358453
H      2.616688    2.716043    0.405373
H      0.841680    2.681617   -0.186042
H      2.783763    0.334483    0.137423
H      0.318299    0.383902   -1.601983
H      1.879092   -1.803614   -0.182913
H      0.642281   -1.957699   -1.561194
H      0.148296   -2.013154    1.414389
H     -1.081926   -2.229574    0.035973
H     -0.207483    0.327209    1.422298
H     -2.042994   -0.209199   -1.055008
H     -1.815810    1.396774   -0.244006
18

C      2.967100    0.978191    0.280654
C      1.915825    0.388014    0.271071
C      0.623728   -0.336435    0.259392
O      0.463168   -1.208195    1.359133
O      0.581598   -0.477030    2.453064
C      0.402418   -1.078258   -1.061854
C     -0.790289   -0.182726   -1.377400
C     -0.593050    0.560306   -0.055198
C     -1.799010    0.421272    0.883930
H      3.889763    1.496305    0.288956
H      1.223750   -0.956999   -1.803781
H      0.098619   -2.139276   -0.920962
H     -0.604816    0.469564   -2.258758
H     -1.741334   -0.756491   -1.445333
H     -0.323853    1.628212   -0.221285
H     -2.065119   -0.645038    1.048769
H     -2.674671    0.939703    0.439628
H     -1.573826    0.898879    1.859974
18

C      2.716871   -0.429962    0.630165
C      1.689456    0.112801    0.308332
C      0.427171    0.781485   -0.087260
O      0.443929    2.163460    0.188827
O      0.465263    2.286058    1.503831
C      0.077846    0.524917   -1.556035
C     -1.224866   -0.151112   -1.140498
C     -0.893221    0.096215    0.331041
C     -0.766417   -1.197248    1.148819
H      3.618255   -0.906798    0.912781
H     -0.101701    1.458150   -2.134542
H      0.764428   -0.182237   -2.073952
H     -2.120140    0.418155   -1.473704
H     -1.252043   -1.225439   -1.428759
H     -1.615992    0.803818    0.795839
H     -1.770762   -1.652197    1.279044
H     -0.351425   -0.964601    2.151947
H     -0.106651   -1.935465    0.644124
18

C     -1.886659    2.064315   -0.032478
C     -1.298212    1.081093    0.342748
C     -0.578709   -0.124512    0.805596
C      0.951153   -0.101856    0.638890
C      1.563473    1.137555   -0.031573
C      0.864638   -1.308626   -0.297501
C     -0.655295   -1.329203   -0.145950
O     -1.286659   -1.052304   -1.372883
O     -2.568892   -1.296235   -1.181620
H     -2.402667    2.927243   -0.362350
H     -0.877525   -0.400131    1.840516
H      1.471926   -0.353753    1.589583
H      2.647142    0.967453   -0.202993
H      1.079954    1.351596   -1.009110
H      1.446232    2.018687    0.633637
H      1.198303   -1.101808   -1.339195
H      1.341754   -2.212773    0.140163
H     -1.009957   -2.266740    0.344531
18

C     -1.265624    2.638415   -0.073712
C     -0.975739    1.528785    0.298239
C     -0.623421    0.170381    0.755212
C      0.848251   -0.243755    0.576048
C      1.798057    0.794430   -0.040610
C      0.419208   -1.329868   -0.411117
C     -1.043068   -0.912847   -0.241332
O     -1.808613   -1.909597    0.386847
O     -2.141835   -2.760383   -0.564570
H     -1.519484    3.612319   -0.400566
H     -0.989281   -0.021163    1.788283
H      1.267420   -0.679348    1.510413
H      2.789237    0.327461   -0.219877
H      1.408661    1.179071   -1.007801
H      1.930366    1.643553    0.662328
H      0.779426   -1.167693   -1.451091
H      0.631165   -2.352721   -0.028503
H     -1.504725   -0.517038   -1.178179
18

C      2.789556   -0.830585    0.503126
C      1.652807   -0.536715    0.777210
C      0.262213   -0.176623    1.115604
C     -0.043856    1.297574    0.850460
C     -1.118545    0.902110   -0.164242
O     -0.793528    1.317783   -1.468025
O     -1.160484    2.582464   -1.544254
C     -0.814118   -0.581438    0.092342
C     -0.345133   -1.384725   -1.134102
H      3.787059   -1.088572    0.261878
H     -0.002884   -0.481705    2.151582
H      0.799047    1.864353    0.393526
H     -0.477824    1.802799    1.740752
H     -2.153358    1.177943    0.148013
H     -1.670981   -1.085487    0.592802
H     -0.021084   -2.396844   -0.812786
H     -1.188336   -1.495860   -1.847729
H      0.499450   -0.886472   -1.656157
18

C      2.635993   -1.099060    1.021785
C      1.502585   -0.688481    1.043604
C      0.115384   -0.185695    1.073125
C      0.019394    1.300921    0.732871
C     -0.854092    0.974173   -0.480067
O     -2.170182    1.441737   -0.326808
O     -2.141604    2.715220   -0.669537
C     -0.756293   -0.518582   -0.151144
C     -0.099491   -1.340797   -1.270599
H      3.630715   -1.459489    1.001950
H     -0.392566   -0.430642    2.031547
H      0.986056    1.764433    0.433083
H     -0.518100    1.877566    1.517799
H     -0.389429    1.256095   -1.455022
H     -1.734227   -0.955430    0.152975
H      0.108466   -2.368842   -0.906526
H     -0.792730   -1.406643   -2.135307
H      0.850122   -0.876483   -1.613727
18

C      2.748172   -0.347248   -1.459791
C      1.874013   -0.099890   -0.667095
C      0.806489    0.204323    0.304592
C      0.240962    1.610982    0.113281
C     -1.123421    1.026172   -0.233984
C     -0.578019   -0.391976   -0.029249
C     -1.257093   -1.111741    1.153850
O     -0.638219   -1.122592   -1.238086
O     -0.027859   -2.274173   -1.024837
H      3.515054   -0.564524   -2.155838
H      1.134665    0.020114    1.351402
H      0.684061    2.177862   -0.736436
H      0.219948    2.187686    1.063885
H     -1.409115    1.236860   -1.288452
H     -1.907597    1.327938    0.495519
H     -2.297668   -1.386042    0.879799
H     -0.699329   -2.034570    1.418174
H     -1.285043   -0.459181    2.053267
18

C      2.125798   -0.898437   -1.752563
C      1.571951   -0.310153   -0.857716
C      0.896442    0.410258    0.238211
C      0.194220    1.680491   -0.237098
C     -1.148872    1.120623    0.219188
C     -0.464853   -0.170205    0.684891
C     -0.992952   -1.414747   -0.062587
O     -0.567835   -0.301103    2.085362
O      0.284320   -1.244723    2.441644
H      2.611294   -1.415081   -2.538139
H      1.589177    0.613658    1.084368
H      0.228814    1.839679   -1.338476
H      0.498094    2.575925    0.348110
H     -1.854003    0.984912   -0.630797
H     -1.585880    1.712492    1.053831
H     -1.017150   -1.244830   -1.160561
H     -0.344807   -2.292444    0.142938
H     -2.023758   -1.646317    0.279392
18

C      2.226507    1.747071    0.700352
C      1.683403    0.849134    0.106707
C      1.020817   -0.250400   -0.621326
C      0.941750   -1.536487    0.199351
C     -0.581193   -1.492572    0.136413
C     -0.516212   -0.200200   -0.679438
C     -1.203944    0.992927    0.007066
O     -2.594669    0.814613   -0.039855
O     -3.113714    1.875312    0.548156
H      2.702543    2.535331    1.221703
H      1.476328   -0.417435   -1.621928
H      1.320268   -1.440225    1.241949
H      1.361024   -2.411310   -0.344210
H     -1.004383   -2.339744   -0.446460
H     -1.040057   -1.375276    1.143190
H     -0.887667   -0.349324   -1.718213
H     -0.866653    1.076750    1.066164
H     -0.924146    1.921835   -0.539609
18

C      2.587687   -1.436338   -1.040409
C      1.718454   -0.931647   -0.374637
C      0.654565   -0.316040    0.441091
C      0.522501    1.206189    0.288177
O      1.434571    1.753914   -0.632924
O      1.231259    3.056969   -0.608414
C     -0.869638    1.024544   -0.318312
C     -0.737470   -0.492684   -0.176231
C     -1.757924   -1.105048    0.787727
H      3.350555   -1.879113   -1.625061
H      0.720829   -0.627399    1.507251
H      0.515807    1.726066    1.275059
H     -1.664525    1.473700    0.317379
H     -0.927746    1.341584   -1.383009
H     -0.735703   -1.004580   -1.165793
H     -2.772739   -1.047765    0.340993
H     -1.507113   -2.171988    0.964792
H     -1.763371   -0.570366    1.762331
18

C     -1.833457    2.649343   -0.155420
C     -1.201470    1.673440    0.163336
C     -0.429206    0.481668    0.553447
C      0.799609    0.257730   -0.335121
C      2.092314    0.047446    0.458760
C      0.187271   -1.044041   -0.853501
C     -1.042866   -0.817983    0.027115
O     -1.144627   -1.777225    1.048690
O     -1.714346   -2.831321    0.497014
H     -2.388192    3.505895   -0.435498
H     -0.216038    0.462322    1.645866
H      0.922445    1.013507   -1.144416
H      1.959461   -0.723492    1.248602
H      2.902028   -0.277553   -0.227855
H      2.393754    1.003095    0.936753
H     -0.060444   -0.988393   -1.935947
H      0.762094   -1.957591   -0.581343
H     -1.988330   -0.676848   -0.550471
18

C      3.069803    0.874039   -0.399662
C      2.044479    0.404407    0.026418
C      0.792216   -0.169860    0.546818
C     -0.164656    0.891356    1.088752
C     -1.171547    0.551635   -0.011464
O     -1.334967    1.607805   -0.923525
O     -2.201853    2.432100   -0.367601
C     -0.211588   -0.507554   -0.561383
C     -0.762188   -1.933393   -0.463040
H      3.969651    1.286468   -0.773864
H      0.975433   -0.993191    1.272444
H      0.221766    1.933915    1.023996
H     -0.549904    0.629682    2.098346
H     -2.134616    0.137196    0.371609
H      0.151152   -0.273258   -1.589007
H     -1.130796   -2.153773    0.562343
H     -1.600182   -2.058698   -1.180519
H      0.037797   -2.658878   -0.720661
18

C      3.246121   -0.299315    0.535717
C      2.042852   -0.320162    0.607188
C      0.572992   -0.346532    0.694618
C     -0.028336    1.029904    0.978615
C     -0.712788    1.019902   -0.389036
O     -2.115025    0.998077   -0.281749
O     -2.479807    2.250124   -0.083863
C     -0.105256   -0.360627   -0.680216
C     -1.111606   -1.507191   -0.844798
H      4.302319   -0.280816    0.472769
H      0.206980   -1.126021    1.399129
H      0.720490    1.849067    1.064129
H     -0.747861    1.003795    1.826618
H     -0.329444    1.801184   -1.086854
H      0.610126   -0.319575   -1.533432
H     -1.806512   -1.565935    0.020636
H     -1.700886   -1.356097   -1.773572
H     -0.564360   -2.469783   -0.925900
18

C      2.995577    1.232521    0.706770
C      2.002332    0.766086    0.207463
C      0.788811    0.197150   -0.402923
C      0.790938   -1.331466   -0.408432
C     -0.402247   -1.343916    0.541807
C     -0.408907    0.185881    0.554289
C     -1.686699    0.818942   -0.022935
O     -1.990022    0.289699   -1.289030
O     -3.091176    0.901508   -1.680224
H      3.867376    1.641806    1.145299
H      0.580518    0.631465   -1.405344
H      1.696701   -1.793354    0.045112
H      0.535456   -1.747979   -1.407317
H     -1.305334   -1.805774    0.085636
H     -0.143133   -1.771684    1.535021
H     -0.176351    0.587174    1.567525
H     -2.524738    0.623207    0.683619
H     -1.529105    1.918734   -0.096326
22

C     -2.745324   -1.039443    0.394353
C     -1.305091   -0.544866    0.459186
C     -0.870548    0.008687   -0.909913
C     -0.753999    1.527880   -1.000690
C      0.505604    0.668391   -1.044214
C      1.421258    0.819167    0.182803
C      2.363985   -0.376190    0.296491
O      3.203903   -0.200517    1.406250
O      3.983293   -1.264331    1.439625
H     -2.842322   -1.849297   -0.360041
H     -3.047277   -1.439893    1.385138
H     -3.425749   -0.203480    0.125016
H     -0.649817   -1.399240    0.729143
H     -1.242845    0.215380    1.266038
H     -1.218390   -0.496976   -1.836650
H     -0.922411    2.090810   -0.057398
H     -1.052266    1.943543   -1.986207
H      0.970150    0.617147   -2.052490
H      2.028893    1.739314    0.045051
H      0.860760    0.940674    1.131893
H      1.765104   -1.306947    0.416193
H      2.973089   -0.449811   -0.633697
22

C      2.262510    1.281345    0.422903
C      1.431835    0.055273    0.785383
C      0.964300   -0.668898   -0.489684
C      0.158725   -1.932914   -0.204749
C     -0.518231   -0.747542   -0.883810
C     -1.625069   -0.076367   -0.038874
C     -1.677204    1.416739   -0.355152
O     -2.870712   -0.636658   -0.379739
O     -2.951293   -1.792285    0.253855
H      2.582334    1.802606    1.349769
H      3.168907    0.977893   -0.143413
H      1.668283    1.985931   -0.195633
H      0.601625    0.371779    1.443271
H      2.073311   -0.637853    1.371284
H      1.699815   -0.823350   -1.308701
H     -0.105312   -2.102317    0.861966
H      0.382548   -2.778345   -0.889299
H     -0.704012   -0.898174   -1.969129
H     -1.455719   -0.180484    1.057171
H     -1.848766    1.579029   -1.441111
H     -0.730837    1.913092   -0.060835
H     -2.507039    1.891497    0.210408
22

C      2.141383    1.129550    0.839877
C      1.284329   -0.131310    0.871373
C      0.972619   -0.600459   -0.560515
C      0.169184   -1.899320   -0.605610
C     -0.451545   -0.610848   -1.138884
C     -1.677996   -0.033816   -0.380181
C     -1.598932    1.490292   -0.306467
O     -1.841962   -0.558562    0.919466
O     -2.644442   -1.602502    0.815099
H      2.340893    1.471152    1.877443
H      3.112852    0.921225    0.342717
H      1.621243    1.941756    0.290241
H      0.382071    0.067254    1.476067
H      1.860435   -0.928680    1.388650
H      1.802429   -0.606367   -1.300340
H     -0.162977   -2.271137    0.385738
H      0.507672   -2.603423   -1.395028
H     -0.477501   -0.552384   -2.248290
H     -2.572712   -0.252755   -1.012635
H     -0.774346    1.818088    0.355976
H     -1.442257    1.918768   -1.319619
H     -2.550438    1.893480    0.100804
22

C      2.482249    1.533802   -0.345328
C      1.068909    1.089741    0.013225
C      0.736373   -0.240652   -0.684786
C      0.853653   -1.482593    0.201252
C     -0.520548   -1.009778   -0.268148
C     -1.487727   -0.445995    0.793940
C     -2.512927    0.489946    0.161667
O     -1.074179   -1.769900   -1.311940
O     -1.472488   -2.901467   -0.763444
H      2.576089    1.675567   -1.443269
H      3.219605    0.773795   -0.009097
H      2.709311    2.497611    0.157338
H      1.002323    1.022104    1.119182
H      0.355714    1.866271   -0.333573
H      1.050221   -0.390075   -1.741063
H      1.071518   -1.300759    1.275404
H      1.245898   -2.376417   -0.328811
H     -0.956368    0.087827    1.607109
H     -2.026789   -1.292386    1.270152
H     -3.119333   -0.054965   -0.592723
H     -3.193662    0.880492    0.947123
H     -2.007845    1.347830   -0.328329
22

C      2.705214    1.078962   -0.014342
C      2.084532   -0.194060    0.548285
C      0.856165   -0.601212   -0.280571
C     -0.132233   -1.495282    0.467242
C     -0.511828   -0.052815    0.136163
C     -1.472449    0.229366   -1.031015
C     -2.930711    0.156593   -0.590490
O     -0.454574    0.881476    1.185199
O     -1.391296    0.523136    2.041390
H      3.603928    1.349126    0.579151
H      3.009717    0.924437   -1.071566
H      1.978257    1.917223    0.038148
H      1.838689   -0.036077    1.621166
H      2.832998   -1.013039    0.493227
H      0.996445   -0.887873   -1.345537
H      0.092617   -1.681532    1.539419
H     -0.629273   -2.259690   -0.166910
H     -1.262350    1.243203   -1.433693
H     -1.319194   -0.502471   -1.854512
H     -3.591515    0.286279   -1.473383
H     -3.157835    0.964536    0.136285
H     -3.145304   -0.830287   -0.127776
22

C     -3.005595   -0.170557   -0.500478
C     -1.684223    0.242051    0.136884
C     -0.693670   -0.939588    0.118383
C      0.783811   -0.663266    0.426448
C      1.210270    0.784879    0.740250
C      2.729456    0.881098    0.815314
C      0.347132   -1.000069   -1.003523
O      0.296646    0.077520   -1.898096
O      1.445242    0.043367   -2.542775
H     -2.845036   -0.459713   -1.561083
H     -3.449661   -1.027273    0.050139
H     -3.718072    0.680548   -0.466811
H     -1.311321    1.140375   -0.394690
H     -1.871954    0.527097    1.193944
H     -1.044958   -1.927883    0.486177
H      1.283299   -1.493030    0.971575
H      0.786752    1.072662    1.726039
H      0.857481    1.520062   -0.010707
H      3.120502    0.210846    1.610402
H      3.026006    1.924380    1.053519
H      3.180212    0.595830   -0.159118
H      0.557681   -2.019338   -1.395912
22

C     -2.873245   -0.908842   -0.554033
C     -2.239605   -0.042793    0.527893
C     -0.979526    0.645712   -0.010474
C      0.011843    1.089619    1.059771
C      0.323565   -0.121702    0.185979
C      1.362769    0.101649   -0.921327
C      2.760929   -0.290733   -0.447449
O      3.171173    0.563115    0.588141
O      4.375610    0.153145    0.936336
H     -2.165752   -1.704345   -0.871778
H     -3.793077   -1.387601   -0.156973
H     -3.146112   -0.288116   -1.434165
H     -2.019398   -0.677283    1.415028
H     -2.965968    0.738394    0.837743
H     -1.050797    1.326688   -0.886605
H     -0.255756    0.832345    2.106842
H      0.566711    2.018954    0.809759
H      0.241553   -1.114592    0.679508
H      1.088008   -0.537059   -1.787856
H      1.377131    1.157458   -1.272969
H      2.748768   -1.348894   -0.098353
H      3.461178   -0.205118   -1.309139
22

C      2.666078    0.430528   -1.105274
C      2.192115    0.275812    0.334743
C      0.881990   -0.519548    0.381692
C      0.039593   -0.292870    1.632743
C     -0.393353    0.313532    0.300717
C     -1.571444   -0.379992   -0.399596
C     -2.885025    0.232210    0.093899
O     -1.438532   -0.176438   -1.786196
O     -2.166325   -1.106288   -2.377137
H      3.623059    0.993349   -1.124208
H      2.830075   -0.566860   -1.566470
H      1.911699    0.989338   -1.699445
H      2.081503    1.285622    0.788744
H      2.963502   -0.276497    0.912452
H      0.847824   -1.555788   -0.019963
H      0.437372    0.449049    2.357659
H     -0.533423   -1.184728    1.964804
H     -0.263537    1.414151    0.208438
H     -1.573140   -1.470956   -0.156274
H     -2.925822    1.314922   -0.153066
H     -2.976678    0.107555    1.194119
H     -3.747533   -0.276102   -0.386500
22

C      2.796836    0.490772   -0.843848
C      2.188490    0.056215    0.483986
C      0.828433   -0.613780    0.253028
C     -0.098285   -0.609719    1.467065
C     -0.378895    0.320267    0.288697
C     -1.557615   -0.050193   -0.637951
C     -2.844370    0.574003   -0.092358
O     -1.714882   -1.447905   -0.754034
O     -2.363511   -1.663526   -1.883687
H      3.787822    0.958413   -0.664457
H      2.932646   -0.386906   -1.511376
H      2.137484    1.232497   -1.343271
H      2.107312    0.943086    1.150983
H      2.867021   -0.676472    0.970434
H      0.767705   -1.529048   -0.373983
H      0.289071   -0.089571    2.369103
H     -0.749241   -1.504972    1.550622
H     -0.159195    1.394699    0.472876
H     -1.330976    0.407129   -1.630188
H     -3.085953    0.149210    0.905543
H     -2.729145    1.675236    0.000464
H     -3.690754    0.370567   -0.781767
22

C     -2.663846   -1.058646   -0.614315
C     -2.036229   -0.273573    0.531052
C     -0.793613    0.479556    0.043517
C      0.200694    0.827484    1.147271
O      0.897166    2.021490    0.922056
O      0.196714    2.949572    1.541748
C      0.524836   -0.286577    0.149302
C      1.524187    0.019456   -0.976800
C      2.949622   -0.259548   -0.515208
H     -2.954675   -0.372402   -1.438238
H     -1.945546   -1.812547   -1.001590
H     -3.571966   -1.584760   -0.251793
H     -2.773349    0.466143    0.909655
H     -1.796830   -0.974233    1.361687
H     -0.889264    1.238426   -0.764025
H      0.010897    0.496635    2.192695
H      0.452884   -1.323373    0.543897
H      1.454136    1.070961   -1.331529
H      1.291091   -0.640203   -1.839590
H      3.054306   -1.322238   -0.208532
H      3.212084    0.396391    0.341905
H      3.656702   -0.058013   -1.347284
20

C     -2.671948    1.094636   -0.210973
C     -1.458506    0.246428   -0.572446
C     -0.907127   -0.459659    0.678666
C      0.220295    0.276611    1.391466
C      0.518026   -1.016374    0.635522
C      1.315388   -0.824054   -0.623613
C      2.596345   -0.468168   -0.576152
O      3.323781   -0.332286   -1.753460
O      4.612776    0.026663   -1.713429
H     -3.471584    0.458491    0.225159
H     -3.067883    1.587060   -1.124080
H     -2.386488    1.879127    0.522050
H     -0.701514    0.901897   -1.055864
H     -1.766511   -0.526080   -1.308765
H     -1.601938   -1.016358    1.343689
H      0.570890    1.213787    0.906359
H      0.204307    0.162264    2.495801
H      0.737391   -1.884175    1.293141
H      0.856211   -1.037804   -1.580945
H      3.078087   -0.282006    0.376967
20

C     -2.876602    0.061096   -0.444046
C     -1.418838   -0.196679   -0.806082
C     -0.681473   -0.850586    0.375618
C      0.050959    0.118998    1.294495
C      0.848904   -0.819402    0.391972
C      1.556482   -0.130817   -0.743207
C      2.625748    0.638180   -0.542506
O      3.113762    0.866788    0.741128
O      4.188357    1.642938    0.927153
H     -3.400007    0.520034   -1.309184
H     -2.939651    0.755910    0.420525
H     -3.384763   -0.892601   -0.186147
H     -0.955907    0.766886   -1.112010
H     -1.381226   -0.888626   -1.674187
H     -1.132496   -1.730845    0.882218
H      0.033669    1.187463    0.986932
H      0.042571   -0.180363    2.363673
H      1.359721   -1.643680    0.933581
H      1.228599   -0.315439   -1.758541
H      3.122190    1.090746   -1.392293
20

C      1.983258   -0.689351   -1.768858
C      1.700237   -0.599829   -0.470023
O      1.916284   -1.715158    0.340625
O      1.790756   -1.641803    1.672509
C      1.224626    0.701395    0.134271
C      0.099102    1.426847   -0.603744
C     -0.192529    0.731801    0.719385
C     -1.087630   -0.514845    0.594960
C     -2.558713   -0.122285    0.668767
H      2.344108   -1.621093   -2.185186
H      1.872456    0.162405   -2.427940
H      1.961841    1.362714    0.636473
H     -0.306371    0.922029   -1.507161
H      0.146640    2.533506   -0.527665
H     -0.334139    1.419435    1.580788
H     -0.861382   -1.200959    1.437792
H     -0.915472   -1.066930   -0.354526
H     -2.817668    0.556856   -0.171364
H     -2.774196    0.387523    1.632060
H     -3.191207   -1.032259    0.598839
20

C      2.603613    1.595107    0.607618
C      1.359839    1.440106    0.148573
C      0.567555    0.195885    0.441339
O     -0.168250    0.146454    1.635665
O      0.714827   -0.077997    2.588668
C      1.047485   -1.138690   -0.122251
C     -0.131989   -0.416429   -0.771758
C     -1.489449   -1.101427   -0.551244
C     -2.623179   -0.095906   -0.712330
H      3.084779    0.815190    1.190039
H      3.149718    2.509040    0.398282
H      0.896062    2.241534   -0.418527
H      1.992104   -1.083768   -0.704255
H      0.796255   -2.019970    0.506309
H      0.103370    0.015119   -1.769289
H     -1.565268   -1.578175    0.450499
H     -1.607670   -1.901096   -1.313151
H     -2.532978    0.710298    0.046451
H     -3.598315   -0.608433   -0.573314
H     -2.598507    0.353158   -1.728232
20

C      1.862856   -1.795243    1.112295
C      0.754166   -1.399532    0.483381
C     -0.203886   -0.435167    1.135813
C     -0.855072    0.647439    0.264480
C     -0.508277    0.734473   -1.234626
C     -1.525504   -0.044284   -2.060465
C      0.263738    1.020048    1.238506
O      1.515553    1.264758    0.654245
O      1.587685    2.574633    0.531117
H      2.523325   -2.518940    0.645968
H      2.118978   -1.400895    2.091123
H      0.505504   -1.841785   -0.475883
H     -0.805066   -0.782877    2.002425
H     -1.858457    0.988399    0.597975
H     -0.546962    1.801842   -1.539883
H      0.510689    0.360334   -1.468254
H     -2.545206    0.367811   -1.903473
H     -1.271368    0.037430   -3.138276
H     -1.517709   -1.116827   -1.772832
H     -0.004986    1.538383    2.185459
20

C      3.231940   -0.189401    0.213055
C      2.153511    0.513482   -0.139760
C      0.817384   -0.155815   -0.320488
C      0.168058   -0.588862    0.990436
C     -0.416169    0.588548    0.205852
C     -1.647592    0.480175   -0.723374
C     -2.401532   -0.845644   -0.632710
O     -0.121687    1.862933    0.715154
O     -0.944260    2.032810    1.731356
H      3.163335   -1.255875    0.405909
H      4.193538    0.303583    0.311725
H      2.256878    1.572752   -0.354807
H      0.681622   -0.886353   -1.147055
H      0.716910   -0.300160    1.913258
H     -0.364781   -1.558234    0.923828
H     -2.359012    1.292888   -0.462799
H     -1.333405    0.651053   -1.775863
H     -2.720704   -1.037669    0.413689
H     -3.307723   -0.799000   -1.272762
H     -1.766311   -1.681213   -0.994643
20

C      2.464142   -0.601361    1.035372
C      1.449499    0.237557    0.814918
C      1.016168    0.578927   -0.585826
C      0.355322   -0.583328   -1.328201
C     -0.487884    0.613436   -0.888447
C     -1.530701    0.482168    0.256088
C     -1.753256   -0.930834    0.797121
O     -0.832676    1.457899   -1.955111
O     -0.778660    2.683884   -1.471561
H      2.978940   -1.082851    0.209343
H      2.784523   -0.811651    2.050535
H      0.979310    0.728559    1.660330
H      1.683689    1.196057   -1.224860
H      0.289079   -1.523154   -0.743216
H      0.609076   -0.608445   -2.409434
H     -1.256558    1.160501    1.090907
H     -2.508411    0.842983   -0.130014
H     -0.843036   -1.307301    1.307699
H     -2.578372   -0.913636    1.540033
H     -2.040194   -1.619410   -0.025675
20

C      2.712641   -0.111895   -0.648764
C      1.690433   -0.409557    0.156894
C      0.954640    0.669990    0.908454
C      0.158093    1.605684    0.003023
C     -0.581180    0.656812    0.946230
C     -1.324739   -0.596500    0.403419
C     -1.404278   -0.688915   -1.129695
O     -2.634763   -0.561505    0.922583
O     -3.066333   -1.809338    0.963359
H      3.013933    0.918841   -0.809920
H      3.254815   -0.904400   -1.154175
H      1.443584   -1.452190    0.324643
H      1.474887    1.196534    1.736847
H      0.201151    1.361199   -1.077336
H      0.170970    2.662644    0.343095
H     -0.979322    1.129916    1.869970
H     -0.789692   -1.494388    0.791053
H     -1.889629    0.218137   -1.548801
H     -2.007930   -1.572801   -1.425089
H     -0.397280   -0.818267   -1.575792
20

C      2.924144   -0.687309   -0.086090
C      1.748278   -0.578032    0.535962
C      1.075568    0.759294    0.695807
C      0.558381    1.362952   -0.609418
C     -0.431525    0.856077    0.436061
C     -1.220871   -0.443808    0.132959
C     -2.673465   -0.083430   -0.188680
O     -0.665989   -1.160717   -0.948086
O     -1.047896   -2.416682   -0.806175
H      3.408057    0.182545   -0.520102
H      3.409337   -1.654693   -0.164630
H      1.304739   -1.459132    0.989075
H      1.513017    1.505508    1.392739
H      0.708269    0.741733   -1.517272
H      0.641302    2.469371   -0.652354
H     -0.923656    1.645445    1.044734
H     -1.208503   -1.051563    1.068899
H     -3.132347    0.466270    0.660935
H     -3.267038   -1.005282   -0.364892
H     -2.719805    0.551454   -1.099470
20

C      2.980366    0.843117    0.557762
C      2.054278    0.400999   -0.295659
C      1.303231   -0.877018   -0.032219
C      0.315196   -0.791436    1.128499
C     -0.203703   -0.897708   -0.300171
C     -0.864505    0.377517   -0.856302
C     -2.383518    0.313006   -0.708339
O     -2.729833    0.298726    0.651724
O     -4.047093    0.238945    0.686720
H      3.191753    0.306565    1.477906
H      3.533285    1.750414    0.337472
H      1.886286    0.940519   -1.222709
H      1.838046   -1.848208   -0.098730
H      0.218852   -1.730993    1.712270
H      0.215272    0.206856    1.607942
H     -0.607224   -1.892987   -0.585578
H     -0.616682    0.455229   -1.936471
H     -0.494693    1.299095   -0.355200
H     -2.765750   -0.601490   -1.217482
H     -2.823565    1.208855   -1.202343
20

C     -2.714660    1.198220   -0.266041
C     -1.805221   -0.022932   -0.331473
C     -0.356469    0.369464   -0.016598
C      0.031577    0.318693    1.456234
C      0.515387   -0.768402    0.502773
C      1.958863   -0.661229    0.114295
C      2.359164   -1.004174   -1.112522
O      3.699184   -0.938592   -1.502788
O      4.660995   -0.523324   -0.666252
H     -2.702781    1.631342    0.756894
H     -3.755234    0.901447   -0.515202
H     -2.379887    1.967774   -0.994079
H     -2.187626   -0.797212    0.370175
H     -1.841166   -0.445463   -1.358104
H      0.152260    1.153189   -0.620161
H     -0.768036   -0.010482    2.153635
H      0.786066    1.081052    1.746954
H      0.038954   -1.766446    0.612972
H      2.678217   -0.338104    0.856262
H      1.630413   -1.344821   -1.837881
20

C     -3.080480    0.388907   -0.218366
C     -1.917776   -0.546578    0.091028
C     -0.615658   -0.000863   -0.507817
C      0.170128    0.947713    0.388979
C      0.655064   -0.483747    0.181345
C      1.850595   -0.599425   -0.717800
C      3.081240   -0.330938   -0.284662
O      3.303722    0.094417    1.022170
O      4.545788    0.362090    1.443390
H     -4.018014   -0.029805    0.204301
H     -3.203834    0.500564   -1.316839
H     -2.900587    1.387532    0.233888
H     -1.843877   -0.680178    1.193216
H     -2.124324   -1.540537   -0.359687
H     -0.547538    0.205084   -1.598632
H     -0.269406    1.138708    1.391248
H      0.727615    1.732578   -0.166485
H      0.552665   -1.150865    1.064445
H      1.714781   -0.948967   -1.734043
H      3.919895   -0.445688   -0.960586
20

C      2.742734   -1.341325    0.060247
C      2.332721   -0.092634   -0.171628
C      1.071766    0.435302    0.456076
C     -0.208176   -0.132564   -0.157594
C     -1.369169   -0.318589    0.825734
C     -2.700650   -0.315155    0.084250
C      0.181755    1.316604   -0.422199
O      0.677217    1.530497   -1.715004
O     -0.370921    1.886280   -2.429885
H      2.159916   -2.012053    0.684615
H      3.668486   -1.699574   -0.378021
H      2.948286    0.565607   -0.777353
H      1.044978    0.634975    1.548891
H     -0.085832   -0.835163   -1.011800
H     -1.243865   -1.295077    1.340097
H     -1.385678    0.478366    1.602160
H     -2.850922    0.657951   -0.430279
H     -2.726367   -1.134297   -0.665879
H     -3.529771   -0.467990    0.806817
H     -0.356508    2.138839    0.099847
20

C      2.962902   -0.832880    0.371548
C      2.306606    0.102103   -0.317852
C      0.960784    0.586687    0.134992
C     -0.196231   -0.340386   -0.235087
C     -1.327694   -0.387385    0.803497
C     -2.640867   -0.791839    0.144031
C      0.019662    0.963249   -1.004308
O     -0.882304    1.982514   -0.674426
O     -0.297550    3.097437   -1.062956
H      2.528500   -1.275127    1.263265
H      3.943032   -1.162684    0.042911
H      2.769179    0.540891   -1.197179
H      0.867356    1.176459    1.072828
H      0.080691   -1.269144   -0.780681
H     -1.064728   -1.144508    1.572570
H     -1.464795    0.585032    1.325077
H     -2.932985   -0.043576   -0.623124
H     -2.539868   -1.788481   -0.336403
H     -3.441668   -0.846198    0.911294
H      0.349977    0.847834   -2.060904
20

C      2.886949   -1.051577   -0.654526
C      2.407892   -0.307460    0.344028
C      0.963806   -0.397088    0.744447
C      0.355323    0.920417    1.218523
C      0.014069    0.377324   -0.165741
C     -1.395765   -0.223602   -0.358245
C     -2.368526    0.888175   -0.759325
O     -1.856890   -0.865149    0.811222
O     -2.777391   -1.731575    0.430012
H      2.238052   -1.721719   -1.210665
H      3.936790   -0.991078   -0.922109
H      3.080871    0.341616    0.896706
H      0.580904   -1.319015    1.231178
H      1.033612    1.800515    1.199460
H     -0.428218    0.808940    1.996826
H      0.485696    0.924125   -1.012132
H     -1.313915   -0.948810   -1.202265
H     -2.457144    1.636273    0.057454
H     -2.012822    1.397490   -1.680552
H     -3.373291    0.462198   -0.964297
20

C      2.971364    1.027035   -0.797328
C      2.519519   -0.067795   -0.182881
C      1.164639   -0.627055   -0.507219
C      0.437093   -1.253569    0.676685
C      0.008220    0.113149    0.155691
C     -1.287067    0.137527   -0.667863
C     -2.492594    0.452189    0.215997
O     -2.691567   -0.585843    1.139394
O     -3.739899   -0.232140    1.857623
H      2.360498    1.547138   -1.529314
H      3.960062    1.410422   -0.567253
H      3.156588   -0.580264    0.532077
H      0.972574   -1.087609   -1.500352
H      0.970352   -1.213903    1.650824
H     -0.225261   -2.103009    0.405282
H      0.279259    0.982340    0.794683
H     -1.192726    0.932912   -1.437780
H     -1.461937   -0.824980   -1.198571
H     -3.389191    0.556222   -0.436280
H     -2.319927    1.417235    0.745678
18

C      3.526774   -0.331291    0.785623
C      2.483867   -0.224014    0.190624
C      1.210854   -0.094232   -0.535714
O      1.140439   -0.602487   -1.841322
O      1.144335   -1.914674   -1.710178
C      0.538828    1.265305   -0.387106
C     -0.082182    0.030581    0.265925
C     -1.363731   -0.488756   -0.403304
C     -2.591779    0.153934    0.230277
H      4.442230   -0.425375    1.308097
H      1.005386    1.962102    0.342535
H      0.018991    1.637535   -1.296283
H      0.027119   -0.030073    1.370777
H     -1.378347   -0.285686   -1.496595
H     -1.417942   -1.588635   -0.258149
H     -3.510307   -0.243276   -0.250885
H     -2.563645    1.255615    0.089904
H     -2.630892   -0.076572    1.316413
18

C      1.493566    0.452571    2.331313
C      1.299990    0.705059    1.168373
C      1.064201    1.018712   -0.252540
C     -0.126023    0.335787   -0.936994
C     -1.010223   -0.631998   -0.125110
C     -2.152794    0.125971    0.540276
C      1.301242   -0.126423   -1.239361
O      1.688671   -1.332771   -0.636758
O      1.491772   -2.255327   -1.556693
H      1.662722    0.230267    3.351954
H      1.319962    2.030714   -0.630444
H     -0.591103    0.913364   -1.764248
H     -0.446571   -1.187311    0.654090
H     -1.438615   -1.382095   -0.823408
H     -2.796331   -0.585523    1.099386
H     -2.772213    0.639979   -0.225469
H     -1.751824    0.878437    1.252203
H      1.763572    0.170587   -2.206569
18

C      3.655026    0.379103   -0.003363
C      2.521428    0.276972   -0.400842
C      1.138485    0.153441   -0.887473
C      0.502060   -1.190637   -0.541132
C      0.043056    0.075484    0.177411
C     -1.288679    0.733022   -0.221452
C     -2.468557    0.108326    0.515945
O      0.512861    0.271031    1.488892
O     -0.034786   -0.682968    2.216188
H      4.649959    0.468579    0.345889
H      0.878496    0.535045   -1.897821
H      1.117027   -1.877691    0.080534
H     -0.210333   -1.570944   -1.303671
H     -1.466534    0.632169   -1.314844
H     -1.241497    1.817095    0.016627
H     -2.496918   -0.988203    0.340192
H     -2.395479    0.307754    1.605615
H     -3.415616    0.552422    0.143315
18

C      3.007178    0.536077    1.060270
C      2.264574    0.037771    0.251673
C      1.361077   -0.570889   -0.737918
C      0.373129   -1.556957   -0.118954
C     -0.127838   -0.220803   -0.663815
C     -0.563227    0.884894    0.322392
C     -2.067037    0.860048    0.575548
O     -0.726521   -0.241019   -1.935209
O     -1.820476   -0.967846   -1.812910
H      3.658376    0.973678    1.770378
H      1.770351   -0.894788   -1.718541
H      0.381899   -1.630676    0.990573
H      0.150251   -2.435519   -0.760852
H     -0.282253    1.873803   -0.098616
H     -0.052428    0.770711    1.302788
H     -2.378898   -0.140563    0.943866
H     -2.621704    1.103857   -0.354956
H     -2.326452    1.618222    1.344294
18

C      2.141000    0.556812    1.665415
C      1.759164    0.379180    0.535539
C      1.301425    0.167259   -0.846472
C      0.876764   -1.270166   -1.132878
C     -0.174879   -0.163956   -1.088315
C     -1.187723   -0.175376    0.087965
C     -1.555848    1.258209    0.466352
O     -0.702662   -0.841303    1.234839
O     -1.205803   -2.062260    1.215105
H      2.474949    0.712472    2.657372
H      1.847456    0.659290   -1.678665
H      0.933729   -1.962950   -0.267319
H      1.132258   -1.612013   -2.158063
H     -0.549479    0.146466   -2.087402
H     -2.126874   -0.644598   -0.294295
H     -1.964448    1.796875   -0.415505
H     -2.330953    1.248815    1.261877
H     -0.668077    1.807243    0.844450
18

C      2.577951    0.638639    1.531646
C      2.106832    0.186944    0.517870
C      1.536736   -0.363541   -0.722579
C      0.661397   -1.591762   -0.498535
C      0.020946   -0.270135   -0.921215
C     -0.799299    0.533737    0.121511
C     -2.273648    0.531723   -0.290610
O     -0.675255   -0.007527    1.418214
O     -0.952211    0.967640    2.264299
H      2.990254    1.035210    2.421865
H      2.163251   -0.403898   -1.638479
H      0.538298   -1.908178    0.558854
H      0.727387   -2.340702   -1.315633
H     -0.263229   -0.197353   -1.993561
H     -0.425703    1.585021    0.085392
H     -2.669897   -0.506400   -0.297733
H     -2.871712    1.137811    0.422241
H     -2.392096    0.972774   -1.303537
18

C     -2.140553    0.866855    1.720563
C     -1.821365    0.181143    0.781698
C     -1.433100   -0.658841   -0.362440
C     -1.261427    0.119451   -1.661749
C     -0.037621   -0.452978   -0.955070
C      0.896930    0.604912   -0.337799
C      1.697109    0.017946    0.824002
O      2.528980   -1.012714    0.359279
O      3.173002   -1.460645    1.419774
H     -2.419795    1.469145    2.544617
H     -1.881468   -1.667844   -0.478278
H     -1.394040    1.221568   -1.589176
H     -1.563873   -0.445055   -2.568968
H      0.404573   -1.336548   -1.463281
H      1.601382    0.952559   -1.123624
H      0.342421    1.499175    0.020687
H      2.313933    0.829752    1.271880
H      0.994913   -0.367869    1.597886
18

C      3.230039   -1.656026    0.277023
C      2.313821   -0.907845    0.509878
C      1.196151    0.004618    0.796185
C     -0.067997   -0.308969   -0.000120
C     -1.382227   -0.008174    0.729308
C     -2.507027    0.222468   -0.272952
C      0.764716    0.919674   -0.350070
O      1.516578    0.768053   -1.522923
O      0.754958    1.250926   -2.483626
H      4.034179   -2.312763    0.072233
H      1.061179    0.404190    1.823850
H     -0.013454   -1.157015   -0.718902
H     -1.639938   -0.879641    1.367977
H     -1.295318    0.885124    1.387174
H     -2.644187   -0.675804   -0.912156
H     -3.454963    0.421060    0.270102
H     -2.274506    1.097948   -0.916160
H      0.407995    1.932177   -0.056818
18

C      2.702951   -2.308995    1.095208
C      1.879449   -1.428613    1.083203
C      0.876086   -0.356545    1.070063
C     -0.014852   -0.355377   -0.169339
C     -1.460272    0.092326    0.097433
C     -2.124818    0.553288   -1.194392
C      1.100273    0.681841   -0.022573
O      0.687986    1.960833    0.373098
O      0.717563    2.688347   -0.725006
H      3.425820   -3.081811    1.105451
H      0.442984    0.010242    2.025848
H      0.177665   -1.164384   -0.908095
H     -1.520050    0.907473    0.851013
H     -2.025912   -0.775233    0.499133
H     -2.128298   -0.269590   -1.940799
H     -3.174652    0.849983   -0.987602
H     -1.585124    1.426969   -1.616280
H      2.023201    0.569247   -0.636362
18

C      3.762185    0.425160    0.049904
C      2.648308    0.047477   -0.214720
C      1.291792   -0.412360   -0.538622
C      0.624248   -1.194020    0.589073
C      0.194802    0.240587    0.295490
C     -1.171830    0.435534   -0.397616
C     -2.272573    0.501656    0.664208
O     -1.449153   -0.603253   -1.311930
O     -2.329923   -0.125767   -2.171929
H      4.739870    0.756754    0.282471
H      1.054285   -0.752036   -1.568610
H      1.218464   -1.302134    1.522472
H     -0.067643   -1.992002    0.247199
H      0.529118    0.991680    1.045388
H     -1.119877    1.419945   -0.920288
H     -2.337375   -0.462211    1.213149
H     -3.253592    0.707275    0.186342
H     -2.061109    1.317716    1.388030
18

C     -3.743003   -0.533554    0.988934
C     -2.749274   -0.420838    0.315731
C     -1.539295   -0.284823   -0.505030
C     -0.928878    1.111046   -0.473850
C     -0.268933   -0.028129    0.294740
C      1.011499   -0.592613   -0.334177
C      2.233630    0.178620    0.157279
O      3.390392   -0.373474   -0.412656
O      4.396900    0.340957    0.052916
H     -4.615183   -0.632310    1.580090
H     -1.453974   -0.828974   -1.469833
H     -1.441604    1.852870    0.176316
H     -0.424480    1.409415   -1.417700
H     -0.373445    0.015354    1.401472
H      0.976831   -0.552786   -1.446026
H      1.108293   -1.658091   -0.034205
H      2.133955    1.247191   -0.142231
H      2.286567    0.110150    1.268229
18

C     -1.800628    1.370519   -0.246128
C     -1.539570    0.103704   -0.572576
C     -1.085236   -0.879022    0.474490
C     -0.349568   -2.093144   -0.081016
C      0.420828   -1.029921    0.693330
C      1.330067   -0.182609   -0.152256
C      1.701403    1.026697    0.257164
O      2.548313    1.797805   -0.531307
O      2.922464    3.017918   -0.127268
H     -1.682159    1.718013    0.775907
H     -2.131541    2.070542   -1.006266
H     -1.669113   -0.216749   -1.602407
H     -1.734388   -1.091052    1.350584
H     -0.189932   -2.103864   -1.181671
H     -0.525811   -3.028212    0.491379
H      0.741089   -1.335270    1.712190
H      1.698972   -0.563010   -1.097501
H      1.344808    1.417655    1.203363
18

C      2.315219   -1.095737   -0.694031
C      1.102236   -1.039831   -0.139663
C      0.809974   -0.088763    0.992087
C      0.772793    1.373739    0.563125
C     -0.517727    0.675802    0.977360
C     -1.479792    0.389728   -0.145921
C     -2.271507   -0.683655   -0.071828
O     -1.556605    1.277281   -1.225439
O     -2.397714    1.078344   -2.250317
H      2.517899   -1.807933   -1.487249
H      3.110295   -0.434300   -0.362976
H      0.338517   -1.736413   -0.469925
H      1.283117   -0.255651    1.982982
H      0.910924    1.554705   -0.525435
H      1.173804    2.075080    1.324957
H     -0.913723    0.983312    1.968442
H     -2.213215   -1.354486    0.776622
H     -2.984495   -0.911225   -0.852778
18

C      2.295693    0.703800   -0.835670
C      1.054404    0.218176   -0.902009
C      0.597092   -0.865523    0.043374
C     -0.860443   -0.847975    0.522082
C     -1.760967    0.232123   -0.024635
C     -2.380370    0.071858   -1.195631
C      0.259582   -0.402604    1.462794
O      0.317062    0.984278    1.671064
O      1.443889    1.189921    2.322447
H      2.991045    0.354259   -0.078377
H      2.622826    1.458117   -1.543776
H      0.397543    0.560971   -1.694778
H      1.083290   -1.862831   -0.003534
H     -1.292689   -1.846727    0.744304
H     -1.959596    1.125938    0.558884
H     -2.223595   -0.823002   -1.790536
H     -3.047915    0.842260   -1.567483
H      0.463149   -1.093041    2.311478
18

C     -3.035662    0.560519    0.693259
C     -1.803985    0.865717    0.280370
C     -0.697273   -0.146814    0.342090
C     -0.743413   -1.187188   -0.770416
C      0.295188   -0.074247   -0.811905
C      1.684704   -0.501814   -0.449371
C      2.499619    0.318692    0.207485
O      3.793955   -0.086335    0.514663
O      4.619231    0.733867    1.176597
H     -3.820505    1.309156    0.661458
H     -3.269045   -0.433596    1.062851
H     -1.591075    1.872883   -0.065824
H     -0.334139   -0.522456    1.323520
H     -0.368881   -2.188508   -0.466715
H     -1.563377   -1.066012   -1.510939
H      0.133389    0.718947   -1.573807
H      2.041249   -1.476632   -0.760069
H      2.160020    1.303820    0.506762
18

C     -2.318054   -1.263333    0.127083
C     -1.884402   -0.016648    0.321963
C     -0.554932    0.425732   -0.214387
C      0.163212    1.444248    0.660602
O      0.974311    2.326942   -0.064412
O      0.214243    3.377190   -0.299739
C      0.638660   -0.007964    0.636484
C      1.876188   -0.305986   -0.164851
C      1.963553   -1.414522   -0.902908
H     -3.288963   -1.566315    0.505149
H     -1.709792   -1.987567   -0.406813
H     -2.518022    0.694145    0.844490
H     -0.395686    0.512842   -1.311747
H     -0.300048    1.784123    1.613891
H      0.402782   -0.621466    1.533058
H      2.731888    0.359383   -0.100651
H      2.872769   -1.629905   -1.454579
H      1.132292   -2.110898   -0.962620
16

C     -2.660089    0.246119   -0.946618
C     -1.856269    0.352579   -0.054331
C     -0.875639    0.483448    1.039270
C      0.597292    0.655551    0.650257
C      0.940955    0.694779   -0.818832
C      2.063419    0.134787   -1.274411
C      0.095915   -0.686990    1.187554
O     -0.018404   -1.689489    0.211518
O     -0.765689   -2.623790    0.763652
H     -3.365032    0.152407   -1.730234
H     -1.187940    0.955070    1.994285
H      1.222172    1.231171    1.365566
H      0.304457    1.241502   -1.507884
H      2.736131   -0.390240   -0.602835
H      2.313753    0.198652   -2.328307
H      0.454969   -0.955555    2.205638
16

C      1.848820    1.495890    1.213621
C      1.528553    0.874993    0.231072
C      1.137741    0.117828   -0.970074
C      0.941301   -1.367733   -0.704430
C     -0.268477   -0.486885   -1.001860
C     -1.170162   -0.228942    0.177089
C     -1.745906    0.968651    0.315258
O     -1.420124   -1.266274    1.082544
O     -2.217629   -1.102535    2.147719
H      2.129093    2.040704    2.076398
H      1.604408    0.358617   -1.948242
H      1.068664   -1.687924    0.353501
H      1.244572   -2.019762   -1.550610
H     -0.714616   -0.635360   -2.008063
H     -1.556291    1.757857   -0.401964
H     -2.409948    1.180874    1.142328
16

C     -2.738814    1.100223    0.528156
C     -2.119603    0.174529    0.066380
C     -1.365310   -0.957050   -0.498006
C     -0.289828   -0.528355   -1.486021
C      0.112452   -1.082500   -0.122969
C      0.694031   -0.053583    0.806946
C      1.906733    0.451366    0.596902
O      2.438803    1.375460    1.489461
O      3.657955    1.888619    1.283810
H     -3.281713    1.913018    0.933682
H     -1.897419   -1.893860   -0.765955
H     -0.159526    0.569191   -1.618016
H     -0.136311   -1.239754   -2.324782
H      0.553337   -2.101307   -0.158511
H      0.140929    0.237081    1.691712
H      2.484283    0.146922   -0.268500
16

C     -2.895556    1.163255    0.103460
C     -1.807131    0.716077    0.365648
C     -0.479041    0.172156    0.686832
C      0.345770   -0.199213   -0.542515
C      1.823460   -0.002761   -0.365889
C      2.367461    1.212034   -0.459688
C     -0.254865   -1.295791    0.328454
O     -1.334720   -1.933555   -0.296907
O     -1.969468   -2.563070    0.671126
H     -3.851021    1.555464   -0.126992
H      0.070531    0.543995    1.578060
H     -0.123329   -0.032600   -1.537534
H      2.464751   -0.863189   -0.198365
H      3.439564    1.337399   -0.348719
H      1.750141    2.086011   -0.645371
H      0.453454   -1.896214    0.942688
14

C     -1.359276    2.281106   -0.666611
C     -1.102519    1.313489    0.005213
C     -0.790375    0.132063    0.827172
C      0.630116   -0.432875    0.731532
C      1.567860    0.234462   -0.186382
C      2.337126    0.780341   -0.937245
C     -0.519227   -1.122344    0.007332
O     -0.968323   -2.281883    0.649173
O     -0.307465   -3.268467    0.078071
H     -1.584055    3.130315   -1.256656
H     -1.321456   -0.021794    1.790559
H      1.020542   -0.964766    1.625000
H      3.011814    1.259799   -1.596606
H     -0.614761   -1.039448   -1.100423
14

C     -2.826124    1.080799    0.073217
C     -1.687319    0.769376    0.317351
C     -0.298099    0.390826    0.616708
C      0.092020   -1.044237    0.265113
O     -0.916648   -1.811760   -0.332881
O     -1.453056   -2.502314    0.652863
C      0.539884    0.107453   -0.624882
C      1.958838    0.453842   -0.475702
C      3.123991    0.738689   -0.354466
H     -3.825771    1.353811   -0.141356
H      0.218941    0.833886    1.495021
H      0.879232   -1.551026    0.868313
H      0.047359    0.191995   -1.618446
H      4.146751    0.988662   -0.247769
22

C      2.562580    0.283742    0.417437
C      1.477630   -0.371518   -0.447859
O      1.349331   -1.734725   -0.109876
O      2.328588   -2.371527   -0.725404
C      0.120058    0.351813   -0.274789
C     -0.958140   -0.188332   -1.207230
C     -2.277568    0.193288   -0.553529
C     -1.995546    0.350793    0.940057
C     -0.484420    0.238395    1.125351
H      2.636652    1.368361    0.189211
H      2.335028    0.153652    1.496636
H      3.548502   -0.181785    0.207111
H      1.771971   -0.254692   -1.519035
H      0.257068    1.433034   -0.509174
H     -0.869494    0.250461   -2.224986
H     -0.898447   -1.296715   -1.282731
H     -3.050484   -0.584482   -0.737533
H     -2.634201    1.160414   -0.972025
H     -2.515731   -0.442128    1.521018
H     -2.353604    1.342938    1.292865
H     -0.102925    1.044737    1.789098
H     -0.246847   -0.745724    1.585389
22

C      2.514690   -0.192019    0.731677
C      1.469983   -0.209945   -0.385132
C      0.218941    0.631420   -0.034078
C     -0.661275    0.852275   -1.263946
C     -1.650141   -0.304653   -1.293802
C     -1.680286   -0.896404    0.113425
C     -0.705247   -0.083704    0.967006
O     -1.430830    0.862411    1.717966
O     -0.631906    1.257923    2.691811
H      3.413288   -0.756542    0.404808
H      2.124464   -0.667731    1.654175
H      2.819130    0.851679    0.959145
H      1.183528   -1.261172   -0.607582
H      1.953056    0.207254   -1.295585
H      0.550063    1.619685    0.357610
H     -1.222295    1.805630   -1.141358
H     -0.080326    0.914481   -2.209985
H     -1.307622   -1.073790   -2.020777
H     -2.658820    0.050915   -1.598009
H     -2.709795   -0.867646    0.533881
H     -1.351791   -1.958892    0.076457
H     -0.156809   -0.781170    1.642292
22

C      2.660640    0.196766    0.477982
C      1.571127    0.619291   -0.506208
C      0.313764   -0.269404   -0.397629
C     -0.738837    0.087474   -1.443017
C     -2.077422   -0.355218   -0.857352
C     -1.836012   -0.669789    0.618770
C     -0.423711   -0.184165    0.942313
O     -0.465368    1.149590    1.398315
O     -0.737071    1.094749    2.688947
H      2.929543   -0.869752    0.323067
H      2.319134    0.341887    1.524320
H      3.566791    0.817757    0.316329
H      1.981374    0.534508   -1.536182
H      1.316082    1.687669   -0.335409
H      0.613975   -1.329961   -0.565145
H     -0.531996   -0.424716   -2.408069
H     -0.760827    1.186870   -1.616157
H     -2.450719   -1.260020   -1.385431
H     -2.830651    0.456045   -0.963784
H     -2.600468   -0.183558    1.263396
H     -1.891146   -1.769679    0.777210
H      0.071799   -0.856342    1.683734
22

C     -2.883192   -0.137400   -0.106010
C     -1.643859    0.717876   -0.365475
C     -0.390311    0.150720    0.330145
C      0.055571   -1.193812   -0.239013
C      1.546958   -1.252467    0.026033
C      2.037667    0.184989   -0.103568
O      3.081793    0.420872    0.810194
O      3.665287    1.540343    0.424480
C      0.822789    1.078860    0.186135
H     -3.768158    0.340909   -0.576055
H     -3.068069   -0.229456    0.985379
H     -2.757920   -1.149583   -0.544704
H     -1.475088    0.795354   -1.462022
H     -1.840311    1.741422    0.022083
H     -0.602685    0.021455    1.416423
H     -0.472018   -2.039831    0.252769
H     -0.121308   -1.237006   -1.337144
H      1.719232   -1.629423    1.059325
H      2.058777   -1.924920   -0.696405
H      2.380694    0.339143   -1.155485
H      0.963040    1.664183    1.121928
H      0.691111    1.797771   -0.653131
22

C     -1.876517   -1.210148    0.141558
C     -1.835391    0.180619   -0.503423
C     -0.419762    0.792398   -0.649924
C      0.554029   -0.097966   -1.429674
C      1.491503   -0.693108   -0.394435
C      1.591728    0.351705    0.707328
O      1.828495   -0.273365    1.945534
O      2.208449    0.680889    2.774572
C      0.253581    1.098703    0.698976
H     -1.387514   -1.963559   -0.509052
H     -1.386228   -1.212639    1.135904
H     -2.934811   -1.516716    0.278575
H     -2.302211    0.113256   -1.510177
H     -2.463175    0.871571    0.100389
H     -0.538496    1.748557   -1.208485
H      0.048161   -0.887209   -2.026181
H      1.147353    0.531730   -2.129797
H      1.054616   -1.635119    0.004412
H      2.488282   -0.915543   -0.833691
H      2.420096    1.053270    0.443803
H      0.435272    2.191445    0.799318
H     -0.377462    0.791228    1.560350
20

C      2.755176   -0.901517   -0.604062
C      1.881643    0.077855   -0.353216
C      0.392206   -0.152906   -0.460436
C     -0.127332   -1.117836    0.601511
C     -1.584275   -0.730265    0.842767
C     -1.797655    0.631489    0.183040
C     -0.416051    1.122929   -0.244278
O     -0.478707    1.868671   -1.436190
O     -0.936969    3.060759   -1.102930
H      2.415780   -1.894887   -0.881653
H      3.820966   -0.710425   -0.532847
H      2.262480    1.061744   -0.093117
H      0.157050   -0.566008   -1.468791
H      0.444441   -0.999502    1.549750
H     -0.043258   -2.172108    0.258272
H     -1.792070   -0.672270    1.933758
H     -2.264160   -1.485079    0.389991
H     -2.271757    1.348977    0.887704
H     -2.455359    0.513202   -0.707019
H      0.037850    1.717175    0.586839
20

C      2.829877    0.495521    0.153761
C      1.861402   -0.141268   -0.510796
C      0.525678   -0.431459    0.135882
C     -0.386428   -1.276567   -0.746250
C     -1.806650   -0.963505   -0.285072
C     -1.731097    0.316689    0.548455
C     -0.291497    0.823664    0.446650
O     -0.178976    1.752692   -0.608903
O     -0.557791    2.919348   -0.121050
H      2.678664    0.831115    1.175259
H      3.784804    0.683810   -0.325956
H      2.057530   -0.473023   -1.526683
H      0.703051   -0.988701    1.084751
H     -0.155948   -2.359222   -0.641056
H     -0.280360   -0.984337   -1.815370
H     -2.201207   -1.798672    0.334530
H     -2.476064   -0.822368   -1.161807
H     -1.965182    0.082973    1.610667
H     -2.462212    1.072525    0.187020
H      0.052407    1.260785    1.415061
20

C      2.808463   -0.443696    1.130456
C      2.049820   -0.330462    0.036455
C      0.545421   -0.443217    0.110565
C     -0.090618    0.713756    0.869590
C     -1.513506    0.820474    0.332519
C     -1.541003    0.083590   -1.016499
O     -2.408657   -1.024442   -0.960802
O     -3.631159   -0.546530   -1.101819
C     -0.113532   -0.402462   -1.262042
H      2.360888   -0.609604    2.105740
H      3.888385   -0.371396    1.052667
H      2.538064   -0.180033   -0.922548
H      0.272224   -1.402445    0.607139
H      0.452738    1.662654    0.658540
H     -0.085494    0.527175    1.965704
H     -1.798964    1.887261    0.202543
H     -2.219926    0.353915    1.054515
H     -1.831191    0.777343   -1.842139
H     -0.088764   -1.401464   -1.750647
H      0.406812    0.329582   -1.920844
20

C      3.096300    0.380505   -0.020071
C      1.950435   -0.168685   -0.432978
C      0.627638    0.163720    0.214657
C     -0.043035   -1.069110    0.811880
C     -1.548485   -0.831446    0.696518
C     -1.741430    0.413143   -0.175350
O     -2.710580    0.170393   -1.166765
O     -3.037146    1.349455   -1.662334
C     -0.375752    0.703099   -0.792827
H      4.029728    0.116006   -0.506152
H      3.116308    1.092635    0.799127
H      1.975083   -0.880287   -1.253878
H      0.758855    0.922173    1.021207
H      0.226024   -1.985170    0.238716
H      0.261397   -1.209534    1.872104
H     -1.991139   -0.665467    1.703337
H     -2.037363   -1.721909    0.242189
H     -2.043495    1.262004    0.484965
H     -0.281540    0.165782   -1.764271
H     -0.231803    1.792696   -0.960982
18

C      2.972856   -0.480464    0.300348
C      1.910781   -0.236433   -0.215496
C      0.610369    0.062305   -0.846162
C     -0.304244   -1.158076   -0.795760
C     -1.117641   -1.033346    0.489614
C     -0.926153    0.393260    1.002425
C     -0.136018    1.147696   -0.070283
O     -1.017427    1.811508   -0.947266
O     -1.352619    2.943533   -0.356198
H      3.904833   -0.694726    0.753464
H      0.795481    0.373027   -1.897955
H     -0.993799   -1.129504   -1.668617
H      0.257478   -2.118407   -0.830978
H     -2.192253   -1.236297    0.287832
H     -0.752717   -1.762520    1.246002
H     -1.905170    0.876648    1.212700
H     -0.336961    0.372472    1.945890
H      0.583206    1.869325    0.390438
18

C      2.894826    0.808518   -1.089016
C      1.949930    0.356872   -0.491598
C      0.796704   -0.196953    0.238901
C      0.027052   -1.217975   -0.590639
C     -1.411772   -1.168174   -0.080341
C     -1.516645    0.049051    0.838811
C     -0.239076    0.856489    0.637164
O     -0.450430    1.787444   -0.404050
O      0.282936    2.848255   -0.121213
H      3.723859    1.205267   -1.613518
H      1.173795   -0.694150    1.160697
H      0.041757   -0.942995   -1.669962
H      0.461053   -2.234930   -0.472052
H     -2.118286   -1.070160   -0.933662
H     -1.657711   -2.095887    0.481517
H     -2.423741    0.651274    0.611762
H     -1.575830   -0.291141    1.896800
H      0.041580    1.349196    1.600399
18

C      3.368926   -0.491796   -0.561911
C      2.179374   -0.301284   -0.609479
C      0.727502   -0.068625   -0.668180
C     -0.060543   -1.267438   -0.168348
C     -1.397373   -0.696544    0.279453
C     -1.145740    0.774343    0.647294
O     -2.034030    1.621763   -0.042516
O     -3.189750    1.542512    0.590558
C      0.294137    1.085044    0.227133
H      4.413019   -0.659045   -0.519937
H      0.436938    0.150748   -1.719809
H      0.446521   -1.736270    0.705867
H     -0.191829   -2.028542   -0.968296
H     -1.796377   -1.263004    1.148935
H     -2.125906   -0.772194   -0.558467
H     -1.232901    0.919722    1.751200
H      0.934616    1.135149    1.137616
H      0.373416    2.055462   -0.311103
18

C      3.408368    0.121978    0.459745
C      2.225186   -0.097560    0.533741
C      0.780981   -0.365818    0.624611
C      0.255369   -1.113857   -0.597332
C     -1.173245   -0.616261   -0.820055
C     -1.411823    0.521392    0.180459
O     -2.040768    1.623650   -0.427318
O     -3.313169    1.297472   -0.557153
C     -0.031837    0.917648    0.684959
H      4.446849    0.314791    0.394602
H      0.582285   -0.967942    1.539212
H      0.273073   -2.211976   -0.422873
H      0.866213   -0.886381   -1.500666
H     -1.904087   -1.436358   -0.647467
H     -1.286945   -0.255376   -1.866526
H     -2.004831    0.146070    1.049575
H     -0.079447    1.319029    1.720956
H      0.407828    1.689498    0.011541
20

C      2.755028   -0.577473    0.248687
C      1.554328    0.131350    0.802484
C      0.334414    0.040606    0.240781
C      0.017400   -0.778224   -0.966224
C     -1.501773   -0.729938   -1.068882
C     -1.956515    0.478763   -0.251580
C     -0.863019    0.743386    0.787494
O     -0.602859    2.121047    0.906575
O     -1.570901    2.614842    1.655563
H      2.596526   -1.675866    0.277770
H      2.939499   -0.254225   -0.797440
H      3.648418   -0.331823    0.859984
H      1.686550    0.745483    1.689093
H      0.486388   -0.320617   -1.864013
H      0.363235   -1.827552   -0.844915
H     -1.831838   -0.648493   -2.127264
H     -1.933217   -1.655174   -0.626447
H     -2.935287    0.285092    0.238461
H     -2.062473    1.354165   -0.930780
H     -1.123902    0.284652    1.770653
20

C      2.693370   -0.348218   -0.158419
C      1.426462   -1.090982    0.150208
C      0.209051   -0.516641    0.107553
C     -1.028001   -1.254835    0.484635
C     -2.093901   -0.174248    0.607171
C     -1.586402    1.031520   -0.182503
C     -0.059654    0.914631   -0.237333
O      0.414747    1.200463   -1.530551
O      0.429199    2.516043   -1.635157
H      2.702494   -0.030144   -1.221408
H      3.565560   -1.012304    0.016091
H      2.787397    0.540218    0.500806
H      1.507900   -2.134326    0.443107
H     -0.899674   -1.786523    1.452854
H     -1.290023   -1.978946   -0.316887
H     -2.211779    0.110585    1.676253
H     -3.073173   -0.528594    0.218310
H     -2.013972    0.995191   -1.209520
H     -1.896945    1.983815    0.299609
H      0.417343    1.563295    0.535180
20

C      2.850309   -0.437753    0.316681
C      1.476381   -0.893609    0.710482
C      0.358333   -0.356576    0.191118
C      0.330420    0.736846   -0.822389
C     -1.139692    0.854991   -1.207016
C     -1.948563    0.208776   -0.076083
O     -2.331503    1.205674    0.842810
O     -3.322593    0.698486    1.552344
C     -1.005868   -0.799021    0.590353
H      2.972331    0.642747    0.541443
H      3.014466   -0.614420   -0.767005
H      3.611314   -1.008570    0.888699
H      1.390716   -1.685765    1.449352
H      0.945441    0.478848   -1.711563
H      0.692984    1.682755   -0.365002
H     -1.316917    0.292123   -2.150612
H     -1.429243    1.916128   -1.370957
H     -2.840499   -0.303975   -0.510146
H     -1.115843   -0.794455    1.696962
H     -1.191975   -1.823228    0.200530
20

C      2.780472    0.529230   -0.000233
C      1.796265   -0.602920    0.012212
C      0.465967   -0.406771    0.004267
C     -0.510494   -1.528676    0.029484
C     -1.859647   -0.849585    0.232969
C     -1.688789    0.614230   -0.190025
O     -2.067732    0.749668   -1.540180
O     -2.283258    2.036732   -1.740083
C     -0.198740    0.929143   -0.018341
H      3.814061    0.125719    0.031959
H      2.661718    1.127354   -0.927953
H      2.624389    1.179742    0.885967
H      2.182624   -1.618322    0.034185
H     -0.484686   -2.069629   -0.941205
H     -0.293832   -2.229851    0.864766
H     -2.129252   -0.889082    1.312012
H     -2.658985   -1.359511   -0.348185
H     -2.313541    1.261812    0.471201
H      0.184518    1.551492   -0.855927
H     -0.021058    1.449225    0.947782
20

C      2.371846    0.126602    0.350684
C      1.190594   -0.130495   -0.595216
O      0.984459   -1.517288   -0.747580
O      1.875355   -1.938278   -1.626416
C     -0.099783    0.540606   -0.066292
C     -1.270611    0.435677   -1.061769
C     -2.437732    0.080627   -0.213338
C     -2.091067   -0.184696    1.034223
C     -0.626964   -0.058630    1.253429
H      2.514297    1.217737    0.502587
H      2.201179   -0.357396    1.335372
H      3.305322   -0.285706   -0.087033
H      1.425171    0.346361   -1.577743
H      0.104657    1.623487    0.100225
H     -1.448392    1.405083   -1.575075
H     -1.116052   -0.364062   -1.817944
H     -3.456389    0.005769   -0.579570
H     -2.796021   -0.499835    1.796534
H     -0.207387   -1.065063    1.465378
H     -0.422480    0.619500    2.109545
20

C      2.435026    0.656040   -0.252691
C      1.280696    0.194662    0.636155
C     -0.084217    0.336267   -0.067843
C     -0.252372   -0.634391   -1.252619
C     -1.618843   -1.188230   -1.078478
C     -2.161113   -0.834873    0.073403
C     -1.261963    0.026669    0.886266
O     -1.948724    1.197506    1.252804
O     -1.238218    1.755982    2.214371
H      3.390268    0.570430    0.306827
H      2.504563    0.026289   -1.164301
H      2.292881    1.716795   -0.549988
H      1.448944   -0.861806    0.940090
H      1.283723    0.817274    1.556940
H     -0.190218    1.378660   -0.447957
H     -0.172885   -0.099324   -2.223166
H      0.478968   -1.470944   -1.222158
H     -2.103776   -1.848342   -1.790161
H     -3.137263   -1.176967    0.402130
H     -0.945477   -0.561697    1.780377
20

C      1.123946    1.447690   -0.814053
C      1.480300    0.389343    0.238901
C      0.378068   -0.671950    0.508926
C     -0.028152   -1.432655   -0.767372
C     -1.366982   -0.874418   -1.100512
C     -1.864017   -0.146788   -0.112372
C     -0.956213   -0.112340    1.066524
O     -0.856659    1.197195    1.570297
O     -0.396060    1.084474    2.802058
H      1.958536    2.175470   -0.894860
H      0.977805    0.986928   -1.812027
H      0.208331    2.006753   -0.537177
H      2.401200   -0.135856   -0.095958
H      1.738166    0.901958    1.190022
H      0.793562   -1.396757    1.244444
H     -0.134895   -2.518024   -0.552532
H      0.684588   -1.301529   -1.608591
H     -1.904930   -1.084307   -2.019043
H     -2.855411    0.294048   -0.134996
H     -1.381181   -0.809234    1.828323
20

C     -1.726092   -1.185450   -0.071612
C     -1.747054    0.344003   -0.192075
C     -0.358659    1.023622   -0.095703
C      0.360336    0.745310    1.239814
C      1.496170   -0.133090    0.862812
C      1.634326   -0.224784   -0.447992
O      2.635176   -0.960670   -1.083458
O      3.541645   -1.656525   -0.383320
C      0.619287    0.559534   -1.192224
H     -2.764006   -1.571110   -0.153724
H     -1.318950   -1.506610    0.908480
H     -1.125730   -1.645191   -0.882601
H     -2.401816    0.752632    0.608039
H     -2.211770    0.615678   -1.164758
H     -0.518131    2.120858   -0.196505
H      0.761369    1.689440    1.667808
H     -0.287692    0.255225    1.996465
H      2.157676   -0.604240    1.577954
H      0.139465   -0.053970   -1.983597
H      1.114450    1.435337   -1.664710
18

C      2.629435    0.612785    0.079770
C      1.436178    0.324665    0.607293
C      0.290218   -0.180821   -0.237394
C     -0.288024   -1.493413    0.317613
C     -1.757815   -1.279860    0.292740
C     -2.080334   -0.035764   -0.016087
C     -0.886937    0.819743   -0.252511
O     -1.006822    1.453238   -1.501548
O     -0.085008    2.397419   -1.523990
H      2.822742    0.481465   -0.980412
H      3.426024    0.987180    0.714395
H      1.278930    0.485380    1.670398
H      0.628595   -0.368839   -1.283072
H      0.030670   -1.692137    1.364458
H     -0.013919   -2.356121   -0.326972
H     -2.488338   -2.042906    0.540742
H     -3.103517    0.325138   -0.044227
H     -0.832080    1.562848    0.578806
18

C     -2.697869    0.955211    0.238684
C     -1.883435   -0.080888    0.018169
C     -0.469354   -0.091772    0.552034
C      0.251930   -1.431355    0.309574
C      1.611386   -1.033368   -0.132199
C      1.692701    0.263752   -0.364980
O      2.842629    0.910899   -0.819024
O      3.979707    0.238261   -1.044303
C      0.417680    0.975678   -0.112200
H     -2.359298    1.821883    0.798541
H     -3.713449    0.939263   -0.143261
H     -2.266923   -0.933049   -0.535659
H     -0.497979    0.095319    1.649909
H     -0.220948   -2.034126   -0.495799
H      0.308636   -2.030360    1.243754
H      2.424322   -1.730831   -0.286718
H      0.580599    1.841067    0.565604
H     -0.000336    1.324416   -1.082112
16

C      2.946939    0.292639   -0.135623
C      1.767155    0.158968   -0.344833
C      0.326189   -0.003231   -0.600943
C     -0.154026   -1.426383   -0.275330
C     -1.403673   -1.215518    0.499948
C     -1.602218    0.057023    0.798412
C     -0.521167    0.938617    0.281840
O     -1.088987    1.978316   -0.474674
O     -0.131148    2.868845   -0.651352
H      3.982440    0.409998    0.048236
H      0.133175    0.205079   -1.677164
H      0.570664   -1.989252    0.353923
H     -0.369333   -1.998144   -1.203523
H     -2.061017   -2.015377    0.824824
H     -2.438839    0.405480    1.395573
H      0.043848    1.332941    1.160685
16

C     -2.853385    1.281276   -0.406635
C     -1.865841    0.771891    0.061232
C     -0.659910    0.149910    0.633174
C     -0.510540   -1.318611    0.197255
C      0.907281   -1.429031   -0.226475
C      1.509771   -0.259114   -0.244435
O      2.838594   -0.104625   -0.632235
O      3.412698    1.105320   -0.647473
C      0.624227    0.858407    0.171445
H     -3.720090    1.728334   -0.817516
H     -0.727678    0.198531    1.742639
H     -0.712082   -2.008332    1.044856
H     -1.166740   -1.578712   -0.662777
H      1.384307   -2.355099   -0.520309
H      1.086246    1.429072    1.005709
H      0.453145    1.530783   -0.698455
20

O      3.918962   -1.227076   -0.589726
O      2.929090   -0.355536   -0.615384
C      2.209493   -0.558206    0.572559
C      1.026099    0.413050    0.641679
C      0.014481    0.217555   -0.507707
C     -0.726527   -1.072318   -0.377296
C     -2.022739   -0.895445   -0.193681
C     -2.399603    0.539814   -0.161053
C     -1.098665    1.284085   -0.476257
H      1.842383   -1.606944    0.633609
H      2.868476   -0.366057    1.449477
H      1.427069    1.449771    0.601412
H      0.512241    0.289478    1.620920
H      0.535073    0.248972   -1.490042
H     -0.265740   -2.053211   -0.430375
H     -2.725339   -1.712241   -0.064959
H     -3.178984    0.751072   -0.924246
H     -2.773208    0.805152    0.851244
H     -1.179140    1.771247   -1.473136
H     -0.913423    2.076839    0.282053
20

C      2.319287    0.862169   -0.041550
C      1.208106   -0.053159   -0.577211
O      1.754485   -1.320676   -0.864983
O      2.297732   -1.236570   -2.065607
C      0.073905   -0.227438    0.460135
C     -0.675314    1.041888    0.708745
C     -1.979843    0.896763    0.559520
C     -2.356346   -0.486029    0.174524
C     -1.018866   -1.204763   -0.022441
H      1.940162    1.892323    0.118860
H      2.721601    0.466707    0.915530
H      3.150063    0.921361   -0.775946
H      0.769466    0.412148   -1.494083
H      0.493305   -0.589282    1.425496
H     -0.223201    1.969820    1.042360
H     -2.694022    1.693896    0.738274
H     -2.942420   -0.956136    0.993203
H     -2.950845   -0.475629   -0.764158
H     -0.897312   -1.460763   -1.098661
H     -0.989943   -2.146630    0.567994
20

C      1.728475    0.699754   -0.368066
C      1.264631   -0.756994   -0.177779
O      1.449315   -1.479599   -1.373742
O      2.728383   -1.803172   -1.429388
C     -0.219313   -0.877994    0.251362
C     -0.502553   -0.133840    1.513429
C     -1.389988    0.830242    1.338170
C     -1.859466    0.919305   -0.069386
C     -1.223970   -0.290707   -0.760894
H      1.171729    1.195521   -1.189487
H      1.592091    1.282674    0.566621
H      2.809234    0.720401   -0.621610
H      1.871074   -1.206789    0.645737
H     -0.451849   -1.952964    0.420333
H     -0.025776   -0.341691    2.466016
H     -1.707858    1.501045    2.129498
H     -2.968666    0.872075   -0.112248
H     -1.498325    1.867186   -0.522970
H     -0.755346    0.000472   -1.725100
H     -2.011820   -1.044925   -0.980497
20

C      1.687101   -0.812515    0.829018
C      1.527677    0.097847   -0.395451
C      0.066111    0.558641   -0.677316
O      0.021085    1.415406   -1.803880
O      0.689537    2.515903   -1.504986
C     -0.555313    1.213407    0.524656
C     -1.556108    0.510323    1.026008
C     -1.799639   -0.744695    0.271618
C     -0.875438   -0.641209   -0.945149
H      1.356279   -0.292089    1.751984
H      1.111024   -1.752499    0.710644
H      2.758118   -1.079646    0.949233
H      1.917546   -0.436157   -1.289251
H      2.176927    0.985659   -0.235998
H     -0.202738    2.138656    0.969745
H     -2.102506    0.800301    1.917409
H     -1.526070   -1.617498    0.902339
H     -2.865591   -0.813235   -0.034302
H     -1.497280   -0.452015   -1.848961
H     -0.330722   -1.594586   -1.117360
20

C      1.663465    0.821195   -0.915775
C      1.672606   -0.199858    0.227929
C      0.270194   -0.667704    0.678131
C     -0.512109   -1.416398   -0.417965
C     -1.700741   -0.516423   -0.776251
C     -1.683635    0.550932    0.255064
C     -0.620066    0.470489    1.033672
O     -0.343790    1.352137    2.080118
O     -1.164580    2.371070    2.370024
H      2.709191    1.080369   -1.184089
H      1.166701    0.407439   -1.817117
H      1.145013    1.752817   -0.606401
H      2.264720   -1.086349   -0.086969
H      2.196326    0.251966    1.098368
H      0.383917   -1.325652    1.567901
H      0.104300   -1.642009   -1.314891
H     -0.889226   -2.380964   -0.011560
H     -2.658117   -1.078769   -0.736085
H     -1.564193   -0.064665   -1.782173
H     -2.439977    1.320379    0.338070
20

C     -2.709921    0.184302    0.008116
C     -1.363412    0.689369    0.524452
C     -0.213356    0.343610   -0.439157
C      1.059830    0.969879    0.009299
C      2.044810    0.094163    0.079676
O      3.353876    0.411446    0.444479
O      3.705265    1.664016    0.766617
C      1.625649   -1.278783   -0.284771
C      0.111844   -1.164247   -0.487547
H     -3.513290    0.484928    0.713177
H     -2.709961   -0.922850   -0.072745
H     -2.930282    0.623929   -0.987890
H     -1.167465    0.258121    1.530979
H     -1.428932    1.794173    0.635155
H     -0.445488    0.718764   -1.460730
H      1.176619    2.027909    0.207109
H      1.870887   -1.989420    0.533603
H      2.129142   -1.587556   -1.226054
H     -0.407791   -1.723621    0.321671
H     -0.188025   -1.598131   -1.466347
20

C     -2.739594   -0.459961   -0.018274
C     -1.418594   -0.247364   -0.757154
C     -0.367233    0.464593    0.116183
C      0.143064   -0.415932    1.207683
C      1.460424   -0.515316    1.203326
C      2.090192    0.272674    0.112572
O      2.886167   -0.575885   -0.676238
O      3.639289    0.213004   -1.419488
C      0.897872    0.830548   -0.684748
H     -3.138679    0.509659    0.348275
H     -3.482439   -0.908439   -0.711097
H     -2.603182   -1.150227    0.839902
H     -1.028926   -1.229824   -1.104583
H     -1.624270    0.375790   -1.654908
H     -0.802019    1.385099    0.565427
H     -0.480955   -0.885685    1.960808
H      2.017168   -1.081957    1.942826
H      2.689836    1.093356    0.572056
H      0.875919    0.391446   -1.707665
H      0.985959    1.934421   -0.785811
20

C     -2.706717   -0.483550    0.239730
C     -1.426079   -0.450193   -0.594102
C     -0.376743    0.520737   -0.017480
C      0.184479    0.020080    1.272038
C      1.470444   -0.271545    1.185805
C      2.018320   -0.033620   -0.174521
O      3.136710    0.813303   -0.088868
O      3.736446    0.749009   -1.262780
C      0.858740    0.636792   -0.931481
H     -3.134376    0.537286    0.333499
H     -3.454873   -1.136007   -0.257784
H     -2.505694   -0.893295    1.251428
H     -1.004015   -1.477389   -0.662085
H     -1.695859   -0.122893   -1.621995
H     -0.829428    1.525360    0.136597
H     -0.390287   -0.102425    2.184240
H      2.047529   -0.672294    2.012995
H      2.279267   -1.019840   -0.625502
H      0.709921    0.148274   -1.919752
H      1.082216    1.712209   -1.110889
20

C      2.301577    0.472015   -0.984026
C      1.545919   -0.538939   -0.122964
C      0.031930   -0.514722   -0.404369
C     -0.666603   -1.588153    0.358709
C     -1.724770   -1.136130    1.008278
C     -1.926859    0.321896    0.811339
C     -0.661752    0.783043    0.068211
O     -0.985930    1.587612   -1.040585
O     -1.294733    2.777001   -0.558459
H      3.390460    0.388864   -0.783325
H      1.979326    1.507649   -0.747174
H      2.123462    0.270272   -2.061717
H      1.743942   -0.330437    0.951607
H      1.943518   -1.552425   -0.350600
H     -0.153297   -0.690968   -1.487934
H     -0.385476   -2.636455    0.336718
H     -2.393055   -1.772361    1.579214
H     -2.025528    0.835018    1.791853
H     -2.842254    0.485863    0.202275
H      0.000123    1.331356    0.782039
20

C      1.207331    0.879004    1.391077
C      1.638273   -0.179969    0.368730
C      0.472234   -0.851904   -0.398368
C     -0.551740   -1.407332    0.535041
C     -1.717803   -0.792826    0.420823
C     -1.691414    0.282171   -0.606471
C     -0.348208    0.078044   -1.326130
O      0.304214    1.300926   -1.576409
O     -0.342398    1.868749   -2.577325
H      2.110091    1.323505    1.860284
H      0.630904    1.694217    0.909617
H      0.591917    0.421671    2.193864
H      2.207510   -0.968602    0.907619
H      2.340312    0.280894   -0.359139
H      0.892786   -1.687832   -1.000118
H     -0.358601   -2.194444    1.256904
H     -2.576298   -1.018716    1.044632
H     -2.544459    0.171142   -1.309473
H     -1.737333    1.272124   -0.103267
H     -0.527318   -0.470822   -2.282800
18

O      3.675781   -1.812823   -0.710058
O      3.573021   -0.884133    0.251339
C      2.419312   -0.112480    0.412751
C      1.352073   -0.252613   -0.380310
C      0.124698    0.598370   -0.182861
C     -0.851385    0.398813   -1.290258
C     -2.052356    0.068465   -0.849404
C     -2.106106   -0.025544    0.632005
C     -0.661641    0.212037    1.084052
H      2.401345    0.619516    1.210793
H      1.369121   -0.981054   -1.182554
H      0.408448    1.673787   -0.152865
H     -0.621740    0.544808   -2.341203
H     -2.905390   -0.091043   -1.500763
H     -2.782303    0.759450    1.033544
H     -2.463375   -1.031687    0.939662
H     -0.262301   -0.715745    1.552189
H     -0.617202    1.031876    1.833953
18

O      2.917171    1.114651    0.023235
O      3.217461   -0.142364   -0.325292
C      2.296340   -1.199280   -0.297371
C      1.002797   -1.112139    0.058120
C      0.283117    0.148027    0.480719
C     -0.045407    0.976066   -0.716983
C     -1.345612    1.038962   -0.947637
C     -2.132453    0.269366    0.048448
C     -1.099395   -0.152989    1.095764
H      2.666116   -2.173584   -0.590682
H      0.428936   -2.030854    0.013301
H      0.880375    0.720809    1.220702
H      0.690707    1.450126   -1.357815
H     -1.778641    1.561807   -1.794092
H     -2.584122   -0.620137   -0.440921
H     -2.925355    0.906258    0.495861
H     -1.234602   -1.218851    1.383106
H     -1.237435    0.464125    2.011548
18

C      2.629846   -0.001292    0.295663
C      1.413171    0.000341   -0.260546
O      1.236120   -0.323930   -1.611669
O      2.267317   -0.635985   -2.409623
C      0.196189    0.330271    0.569889
C     -0.648837    1.339611   -0.126755
C     -1.848155    0.872979   -0.426912
C     -2.031296   -0.537068    0.002841
C     -0.731137   -0.887921    0.733965
H      2.765411    0.237942    1.342971
H      3.510753   -0.243350   -0.283540
H      0.477779    0.733035    1.568833
H     -0.322479    2.346221   -0.368684
H     -2.602818    1.453777   -0.946998
H     -2.908429   -0.621503    0.679624
H     -2.172211   -1.185048   -0.888753
H     -0.941390   -1.057490    1.813055
H     -0.289832   -1.820592    0.316640
18

C      2.057958   -0.634527    0.626497
C      1.652139    0.385452   -0.140573
C      0.182045    0.693122   -0.394880
O      0.038533    1.864087   -1.175952
O      0.540472    2.872445   -0.483282
C     -0.587088    0.807351    0.889995
C     -1.510120   -0.129548    1.016159
C     -1.538278   -1.058295   -0.141200
C     -0.514460   -0.480967   -1.124380
H      3.117915   -0.816610    0.770456
H      1.343372   -1.292755    1.110470
H      2.408947    1.006562   -0.611404
H     -0.400678    1.559039    1.650851
H     -2.151041   -0.223290    1.886635
H     -1.239294   -2.076146    0.189412
H     -2.555346   -1.085225   -0.587777
H     -1.045019   -0.119903   -2.033737
H      0.199944   -1.270789   -1.447289
18

C      2.599611   -0.578871   -0.766652
C      1.569164    0.242392   -0.546695
C      0.477175   -0.119639    0.430761
C     -0.447578   -1.226554   -0.111651
C     -1.849439   -0.611011   -0.200330
C     -1.687529    0.768357    0.318553
C     -0.438476    1.029348    0.655616
O     -0.007412    2.249127    1.181046
O     -0.858110    3.266451    1.374669
H      2.673741   -1.531208   -0.250152
H      3.377065   -0.299186   -1.470091
H      1.532171    1.189061   -1.079986
H      0.921950   -0.421080    1.405061
H     -0.128614   -1.593141   -1.112946
H     -0.455331   -2.090249    0.589012
H     -2.204221   -0.578218   -1.252831
H     -2.573214   -1.172130    0.428887
H     -2.500951    1.476549    0.407730
18

C     -2.812716   -0.610262   -0.526103
C     -1.734022   -0.689240    0.258037
C     -0.673605    0.383848    0.236629
C      0.323748    0.170009    1.318736
C      1.553741    0.119410    0.855006
O      2.661209   -0.052230    1.682048
O      3.898857   -0.092884    1.171782
C      1.627993    0.271920   -0.619585
C      0.162530    0.359311   -1.059007
H     -2.949627    0.227435   -1.203415
H     -3.566926   -1.389730   -0.493144
H     -1.634432   -1.540891    0.926379
H     -1.141836    1.382917    0.379667
H      0.077138    0.097693    2.370666
H      2.176074    1.203846   -0.876565
H      2.131132   -0.608666   -1.073877
H     -0.087390   -0.517632   -1.697546
H     -0.011866    1.285146   -1.649708
18

C     -2.447743    0.556854    1.293184
C     -1.845468    0.164980    0.166977
C     -0.548659   -0.605187    0.203095
C     -0.167640   -1.079069   -1.156014
C      1.065035   -0.732361   -1.483007
C      1.743109    0.042306   -0.410463
O      2.209441    1.259729   -0.935894
O      3.039580    1.753734   -0.036589
C      0.642739    0.265809    0.642182
H     -2.014261    0.334733    2.263745
H     -3.382540    1.105949    1.246972
H     -2.312310    0.401869   -0.785791
H     -0.650713   -1.490263    0.869473
H     -0.805891   -1.682131   -1.794370
H      1.536689   -1.019173   -2.417439
H      2.575245   -0.577470   -0.001094
H      1.000019   -0.043339    1.648641
H      0.363367    1.343028    0.686391
18

C     -2.733627    0.505384    0.619632
C     -1.863196   -0.333626    0.051212
C     -0.432363   -0.411393    0.523445
C      0.286819   -1.537585   -0.132545
C      1.395531   -1.145991   -0.735319
C      1.627304    0.317464   -0.614599
O      2.800276    0.538675    0.128023
O      3.129080    1.801443   -0.070490
C      0.385135    0.834397    0.133771
H     -2.429833    1.157130    1.433372
H     -3.759890    0.543601    0.269187
H     -2.205771   -0.973901   -0.757835
H     -0.403884   -0.568007    1.624577
H     -0.035685   -2.573433   -0.093407
H      2.066974   -1.826988   -1.248390
H      1.697265    0.753409   -1.639049
H      0.666294    1.407598    1.044659
H     -0.190427    1.511822   -0.536246
18

C      2.313858   -0.450902   -0.489401
C      1.494824    0.494041   -0.967557
C      0.012447    0.520547   -0.670042
C     -0.649117   -0.760149   -1.047942
C     -1.368915   -1.261552   -0.060191
C     -1.322872   -0.417506    1.162262
C     -0.306640    0.691757    0.832460
O     -0.857086    1.967414    1.062449
O     -0.836692    2.151307    2.369585
H      3.370774   -0.427220   -0.733761
H      1.939117   -1.249236    0.143941
H      1.909775    1.272870   -1.600485
H     -0.457190    1.337413   -1.261721
H     -0.585863   -1.215173   -2.031456
H     -1.951754   -2.172492   -0.148554
H     -0.985014   -1.021738    2.031291
H     -2.335060   -0.003147    1.360810
H      0.615409    0.543767    1.445456
18

C      1.804096    0.050623    1.341075
C      1.617843    0.790132    0.240354
C      0.481116    0.550418   -0.732753
C      0.493899   -0.855750   -1.229968
C     -0.578773   -1.530796   -0.851715
C     -1.503244   -0.708459   -0.027053
C     -0.935080    0.717344   -0.129502
O     -0.907505    1.356733    1.126098
O     -2.153503    1.699135    1.395658
H      2.636590    0.264336    2.003330
H      1.133060   -0.765280    1.589891
H      2.314871    1.596141    0.030906
H      0.602495    1.239007   -1.597583
H      1.301093   -1.292142   -1.809732
H     -0.736424   -2.579599   -1.080614
H     -2.535966   -0.758718   -0.433520
H     -1.487407   -1.078807    1.020880
H     -1.547160    1.305681   -0.855753
16

C      2.725115    0.620516   -0.707580
C      1.677110    0.478288   -0.128303
C      0.391619    0.304791    0.581391
O      0.419114    0.923120    1.850055
O      0.577816    2.220454    1.651499
C      0.144020   -1.153478    0.758927
C     -0.877291   -1.588102    0.040123
C     -1.509008   -0.505135   -0.755101
C     -0.811434    0.770483   -0.274488
H      3.644720    0.745314   -1.216071
H      0.753059   -1.804634    1.378837
H     -1.187457   -2.627411    0.008695
H     -2.602255   -0.466738   -0.560334
H     -1.317593   -0.676670   -1.836151
H     -0.502946    1.401737   -1.137662
H     -1.524588    1.357466    0.346163
16

C      2.487430   -0.524079   -1.573921
C      1.696090   -0.458616   -0.666539
C      0.731174   -0.379182    0.440897
C     -0.474007   -1.308718    0.215040
C     -1.684002   -0.391913   -0.003116
C     -1.169471    0.973719    0.262124
C      0.129819    0.976550    0.497125
O      0.874329    2.125099    0.773242
O      0.301072    3.335722    0.816658
H      3.181767   -0.581445   -2.370448
H      1.240604   -0.612761    1.400501
H     -0.637658   -1.932835    1.121194
H     -0.337918   -1.989706   -0.655163
H     -2.506610   -0.637313    0.702337
H     -2.046890   -0.457677   -1.051303
H     -1.785728    1.863153    0.245660
16

C      3.044469    0.475084   -0.370162
C      1.934225    0.509065    0.098957
C      0.580631    0.550570    0.671931
C     -0.391425    1.001941   -0.355671
C     -1.296604    0.078260   -0.620770
O     -2.328309    0.232514   -1.547703
O     -2.473938    1.365358   -2.248868
C     -1.106965   -1.162145    0.167042
C      0.085832   -0.850339    1.077688
H      4.018798    0.445080   -0.782041
H      0.563385    1.244180    1.539903
H     -0.360512    1.974028   -0.831644
H     -0.875771   -2.009286   -0.513947
H     -2.019198   -1.384707    0.761275
H     -0.245789   -0.837563    2.139358
H      0.871172   -1.632039    0.968940
16

C     -2.779884    0.901092   -0.926502
C     -1.936141    0.387927   -0.234680
C     -0.907298   -0.237246    0.609697
C     -0.362728   -1.443988   -0.066305
C      0.922819   -1.326570   -0.350437
C      1.486421   -0.018526    0.076711
O      1.888049    0.702549   -1.061332
O      2.663126    1.677751   -0.625052
C      0.315570    0.677709    0.794669
H     -3.520197    1.351545   -1.533862
H     -1.347620   -0.516828    1.590863
H     -0.949578   -2.323707   -0.311969
H      1.494243   -2.098460   -0.855890
H      2.338871   -0.205151    0.771654
H      0.144842    1.704396    0.398338
H      0.549504    0.767506    1.878385
16

C     -3.128395    0.294332   -0.236698
C     -2.041486    0.039031    0.218626
C     -0.716128   -0.271705    0.774699
C     -0.141033   -1.454737    0.081516
C      0.953346   -1.158491   -0.598348
C      1.312079    0.281253   -0.501972
O      2.630521    0.405181   -0.030924
O      2.980667    1.659443   -0.245715
C      0.296645    0.853841    0.503574
H     -4.082207    0.518465   -0.636535
H     -0.805338   -0.474073    1.863664
H     -0.572716   -2.450388    0.112193
H      1.503080   -1.884474   -1.188782
H      1.187500    0.742817   -1.509713
H     -0.179727    1.772289    0.092707
H      0.803192    1.127217    1.455997
16

C      3.024828    0.067469    0.165466
C      1.874505    0.129562   -0.190412
C      0.471950    0.207121   -0.624464
C     -0.048077   -1.150049   -0.938496
C     -1.172000   -1.416376   -0.296886
C     -1.609000   -0.292064    0.570858
C     -0.454374    0.719218    0.501606
O     -0.956238    1.999816    0.202852
O      0.020196    2.849208    0.462416
H      4.034373    0.012933    0.478030
H      0.397950    0.843751   -1.532826
H      0.407425   -1.831318   -1.650715
H     -1.728063   -2.339547   -0.423188
H     -2.554698    0.133885    0.170546
H     -1.768758   -0.650365    1.610626
H      0.059978    0.716755    1.494587
16

C      2.881841    0.066409   -0.004385
C      1.733588    0.199488   -0.347609
C      0.330899    0.362891   -0.767891
C     -0.212768   -0.960260   -1.178666
C     -1.130892   -1.408233   -0.338198
C     -1.370560   -0.467331    0.787471
C     -0.609792    0.801604    0.381129
O      0.074989    1.338588    1.489830
O      0.392797    2.577549    1.163500
H      3.889422   -0.050382    0.297195
H      0.278217    1.079289   -1.615439
H      0.130982   -1.521794   -2.041859
H     -1.612489   -2.375430   -0.437856
H     -2.457399   -0.267643    0.904497
H     -0.961219   -0.905935    1.723448
H     -1.357615    1.531191   -0.015167
18

C     -2.602702    0.170356    0.514799
C     -1.737853   -0.380047   -0.575964
C     -0.402989   -0.304952   -0.536535
C      0.469940   -0.822398   -1.569153
C      1.727539   -0.600074   -1.241679
C      1.866132    0.098475    0.074724
O      2.527740    1.323651   -0.117608
O      2.888148    1.739152    1.082173
C      0.413764    0.312913    0.550240
H     -2.370851   -0.334454    1.476204
H     -3.670951   -0.005072    0.269254
H     -2.436060    1.263244    0.618309
H     -2.218756   -0.854404   -1.423403
H      0.152233   -1.318792   -2.477276
H      2.564042   -0.901569   -1.858695
H      2.426025   -0.567946    0.772300
H      0.167808    1.392855    0.648572
H      0.236793   -0.210937    1.514378
18

C      2.523572    0.326765   -0.195394
C      1.493874   -0.731417   -0.443923
C      0.191905   -0.544678   -0.192953
C     -0.819220   -1.563785   -0.388800
C     -1.993276   -1.108553   -0.000708
C     -1.921097    0.292924    0.513952
C     -0.438832    0.694162    0.362222
O     -0.295781    1.751727   -0.553945
O     -0.584164    2.855087    0.110255
H      3.530755   -0.067158   -0.445644
H      2.515159    0.624973    0.874077
H      2.323175    1.213315   -0.832382
H      1.826927   -1.687285   -0.831146
H     -0.648592   -2.557403   -0.783388
H     -2.902728   -1.693381   -0.042907
H     -2.227117    0.316805    1.581768
H     -2.592444    0.946961   -0.083526
H      0.017886    0.930942    1.352441
18

C     -2.798623    0.111958    0.510786
C     -1.521143   -0.662362    0.610301
C     -0.359856   -0.203021    0.129978
C     -0.151626    1.068886   -0.538272
C      1.116276    1.187724   -0.879244
C      1.933427   -0.003327   -0.487807
O      2.952937    0.402021    0.390858
O      3.805193   -0.603794    0.454144
C      0.930183   -0.944164    0.211911
H     -2.698709    1.080761    1.044212
H     -3.049333    0.296775   -0.555092
H     -3.623932   -0.466946    0.975521
H     -1.545363   -1.632786    1.091655
H     -0.906928    1.818382   -0.736284
H      1.513937    2.052239   -1.394840
H      2.346917   -0.469047   -1.413187
H      0.854811   -1.911634   -0.330244
H      1.201832   -1.121666    1.275615
18

C      2.710849   -0.350754    0.247130
C      1.441810    0.312729    0.683954
C      0.251425    0.021382    0.144534
C      0.004311   -0.957428   -0.900091
C     -1.284771   -1.002823   -1.169472
C     -2.077743   -0.049767   -0.334409
C     -1.035805    0.652808    0.560892
O     -0.991206    2.034401    0.301272
O     -2.011544    2.563148    0.950208
H      2.646276   -1.445891    0.419138
H      2.892627   -0.151984   -0.830155
H      3.563889    0.051818    0.832365
H      1.496847    1.058001    1.468530
H      0.749208   -1.569589   -1.391843
H     -1.715231   -1.661121   -1.912617
H     -2.611641    0.669363   -0.992629
H     -2.811889   -0.610709    0.282632
H     -1.217414    0.436417    1.640559
18

C      2.350684    0.143080   -0.327060
C      1.224437   -0.132716    0.667796
C     -0.046777   -0.661546   -0.020180
C     -1.056823   -1.092841    0.999987
C     -2.167516   -0.379805    0.894849
C     -2.020833    0.571621   -0.190052
C     -0.818721    0.413764   -0.725348
O     -0.340659    1.131375   -1.822212
O     -1.084367    2.075847   -2.414262
H      2.564973   -0.763474   -0.932095
H      3.271519    0.423332    0.226590
H      2.084375    0.982540   -1.000995
H      1.000093    0.795753    1.238535
H      1.588192   -0.895767    1.390737
H      0.178468   -1.504365   -0.709170
H     -0.909768   -1.880829    1.727281
H     -3.044328   -0.501387    1.516703
H     -2.772947    1.275418   -0.521104
18

C     -2.350758   -0.981995    0.297150
C     -1.351836    0.096336    0.713583
C     -0.344303    0.409665   -0.404290
C      0.561381    1.539840   -0.008773
C      1.824469    1.145549    0.010093
C      1.867929   -0.255202   -0.364981
O      3.015925   -1.036266   -0.467877
O      4.223468   -0.517473   -0.210396
C      0.647317   -0.698681   -0.604683
H     -1.831641   -1.945480    0.111552
H     -2.892571   -0.672821   -0.621950
H     -3.091367   -1.134378    1.110297
H     -0.819246   -0.231648    1.633924
H     -1.920792    1.019840    0.958936
H     -0.859136    0.652990   -1.359057
H      0.237141    2.546119    0.222906
H      2.670507    1.772051    0.259585
H      0.413512   -1.708446   -0.916007
20

C     -2.245425   -0.446406    0.897594
C     -1.532990   -0.079342   -0.408973
O     -2.024830    1.141106   -0.911027
O     -3.167908    0.868664   -1.513119
C     -0.047635    0.046559   -0.177758
C      0.514904    0.988486    0.567730
C      1.995241    0.874011    0.597973
C      2.304929   -0.355340   -0.262290
C      0.959345   -0.863458   -0.789302
H     -1.813995   -1.379160    1.320243
H     -2.143638    0.371097    1.642927
H     -3.325601   -0.618563    0.706379
H     -1.693653   -0.903973   -1.144130
H     -0.041220    1.761143    1.089506
H      2.453641    1.788911    0.165091
H      2.344353    0.729301    1.642815
H      2.799642   -1.140050    0.351203
H      2.975475   -0.081408   -1.106075
H      0.774880   -1.910950   -0.466937
H      0.914484   -0.790627   -1.897410
20

C     -2.731715    0.268660   -0.414253
C     -1.704760    0.687852    0.633265
C     -0.327451    0.205201    0.267364
C      0.378661    0.685089   -0.745937
C      1.710630    0.036605   -0.867114
O      2.714300    1.011242   -0.730537
O      3.831681    0.450308   -1.153444
C      1.746990   -0.973141    0.294906
C      0.409143   -0.838581    1.028754
H     -3.741153    0.609506   -0.101683
H     -2.745425   -0.837530   -0.517628
H     -2.493021    0.726227   -1.397860
H     -2.000447    0.259186    1.615076
H     -1.698294    1.794959    0.730185
H      0.022472    1.462775   -1.414852
H      1.765619   -0.478511   -1.854972
H      1.865880   -2.005643   -0.100597
H      2.588337   -0.761293    0.991232
H      0.563682   -0.507065    2.078272
H     -0.155130   -1.795848    1.008915
20

C     -2.654100   -0.654548    0.142395
C     -1.824634    0.625846    0.121045
C     -0.351596    0.320258    0.148232
C      0.279188   -0.187372    1.196692
C      1.725324   -0.400829    0.933458
C      1.957149    0.194467   -0.463897
O      2.592758   -0.750489   -1.291095
O      3.036102   -0.084441   -2.340989
C      0.561643    0.557390   -1.002079
H     -3.733155   -0.398747    0.087205
H     -2.472596   -1.220104    1.081005
H     -2.394829   -1.294757   -0.727919
H     -2.089867    1.259379    0.994745
H     -2.069330    1.194437   -0.801957
H     -0.209174   -0.441153    2.132487
H      2.334162    0.125960    1.699393
H      1.947514   -1.489759    0.960650
H      2.577662    1.116828   -0.356244
H      0.264818   -0.096053   -1.851223
H      0.522962    1.623687   -1.312814
20

C      2.589739   -0.202453    0.417410
C      1.636604   -0.260818   -0.772417
C      0.200805   -0.240027   -0.319790
C     -0.388343   -1.251389    0.301701
C     -1.820685   -0.982271    0.584278
C     -2.055588    0.439862    0.065204
C     -0.735127    0.888670   -0.585993
O     -0.241596    2.060548    0.014456
O     -0.929573    3.058728   -0.507228
H      3.638353   -0.188364    0.052677
H      2.453752   -1.092066    1.068500
H      2.406934    0.718502    1.011466
H      1.828657   -1.183463   -1.361494
H      1.832535    0.612760   -1.430897
H      0.113713   -2.179425    0.557329
H     -2.012560   -1.047287    1.676757
H     -2.455729   -1.714207    0.040594
H     -2.334869    1.108742    0.909319
H     -2.878176    0.449697   -0.682881
H     -0.848845    1.004261   -1.689899
18

C      2.947204   -0.179405   -0.661347
C      2.117509   -0.081686    0.375683
C      0.649088   -0.058208    0.221477
C     -0.173440    0.023757    1.250120
C     -1.600953    0.010948    0.845728
O     -2.227032    1.180359    1.310871
O     -3.525353    0.973161    1.194932
C     -1.556972   -0.029920   -0.691492
C     -0.078432   -0.134059   -1.075405
H      2.582607   -0.247640   -1.677857
H      4.016589   -0.192838   -0.495545
H      2.541007   -0.018046    1.371174
H      0.155402    0.074983    2.280986
H     -2.077862   -0.907344    1.262313
H     -1.998686    0.891864   -1.131049
H     -2.120592   -0.910165   -1.070915
H      0.131287   -1.105122   -1.574003
H      0.218629    0.709362   -1.735670
18

C     -2.702151    0.290128    1.094259
C     -2.141342   -0.163750   -0.025049
C     -0.679743   -0.177416   -0.234954
C     -0.125319   -0.595131   -1.356934
C      1.352786   -0.478909   -1.338318
C      1.686015   -0.030998    0.091446
O      2.524555    1.099026    0.061141
O      3.009427    1.232542    1.281580
C      0.334046    0.293496    0.749403
H     -2.108768    0.676191    1.912605
H     -3.779252    0.279542    1.199096
H     -2.787211   -0.535155   -0.812008
H     -0.686807   -0.954798   -2.210342
H      1.816943   -1.461825   -1.569252
H      1.671815    0.274053   -2.091479
H      2.176232   -0.882244    0.622992
H      0.226159   -0.251311    1.712119
H      0.212617    1.386560    0.913695
18

C      2.791815    0.114299    0.046191
C      1.848716   -0.657374   -0.491220
C      0.404566   -0.387993   -0.328716
C     -0.522646   -1.138571   -0.893766
C     -1.896207   -0.673052   -0.590210
C     -1.695155    0.611144    0.217457
C     -0.182010    0.728430    0.469374
O      0.117323    0.535815    1.830386
O     -0.115764    1.690205    2.426270
H      2.547129    0.987852    0.635556
H      3.835685   -0.127509   -0.105794
H      2.157862   -1.515680   -1.076191
H     -0.307135   -2.007381   -1.503425
H     -2.451168   -0.472551   -1.531688
H     -2.427881   -1.441512    0.011060
H     -2.047934    1.486830   -0.370636
H     -2.270994    0.567684    1.168133
H      0.213797    1.699365    0.087222
16

C      3.492058   -0.715095   -0.189230
C      2.315032   -0.470281   -0.100830
C      0.910314   -0.179174    0.005000
C      0.387987    0.990531   -0.300561
C     -1.079148    1.026529   -0.079157
O     -1.724445    1.342681   -1.287228
O     -2.966358    1.656613   -0.969277
C     -1.425493   -0.400239    0.387341
C     -0.096264   -1.155645    0.484624
H      4.525367   -0.930015   -0.266837
H      0.965720    1.835498   -0.655393
H     -1.298456    1.777574    0.715872
H     -2.098212   -0.908705   -0.338479
H     -1.928918   -0.370631    1.378359
H      0.121357   -1.442804    1.536178
H     -0.100541   -2.056838   -0.166096
16

C      3.150376   -0.144721    1.599992
C      2.101023   -0.161154    1.006929
C      0.848576   -0.179716    0.299668
C      0.452955   -1.189599   -0.446827
C     -0.894673   -0.962416   -1.023221
C     -1.256369    0.472168   -0.606196
O     -2.521074    0.491354    0.011207
O     -2.892257    1.757347    0.054704
C     -0.151315    0.912701    0.370323
H      4.071596   -0.130295    2.120648
H      1.030820   -2.092967   -0.598974
H     -0.858904   -1.061411   -2.129483
H     -1.605448   -1.706203   -0.601865
H     -1.242866    1.118781   -1.516747
H      0.301404    1.875614    0.049063
H     -0.533844    1.000516    1.410777
16

C      3.350507   -0.205849   -0.432154
C      2.152937   -0.233706   -0.297415
C      0.722971   -0.265473   -0.136332
C      0.025780   -1.382407   -0.105663
C     -1.427091   -1.131310    0.046550
C     -1.549210    0.395033    0.119282
C     -0.120125    0.951269   -0.016877
O      0.257521    1.674351    1.128778
O     -0.295845    2.866682    1.010094
H      4.401858   -0.181346   -0.550420
H      0.461799   -2.370451   -0.188319
H     -1.798431   -1.606956    0.979572
H     -1.975395   -1.534160   -0.831927
H     -2.010886    0.695122    1.085992
H     -2.187297    0.770635   -0.710393
H     -0.009091    1.558568   -0.946480
18

C     -1.993014   -0.668262   -0.966335
C     -1.389960    0.107444    0.203864
O     -1.839083   -0.458139    1.412073
O     -1.626767    0.446258    2.350490
C      0.115821    0.074162    0.135158
C      0.861551   -1.012168    0.291085
C      2.258252   -0.637584    0.175173
C      2.339191    0.664655   -0.044076
C      0.977147    1.274583   -0.091570
H     -1.706493   -1.740660   -0.916687
H     -3.100878   -0.596543   -0.932099
H     -1.642373   -0.242540   -1.931108
H     -1.740701    1.162818    0.110735
H      0.487580   -2.010171    0.479234
H      3.103518   -1.307955    0.255338
H      3.268481    1.204736   -0.168233
H      0.779199    1.723127   -1.087935
H      0.848529    2.016238    0.724891
18

C      2.332219    0.590434    0.092621
C      1.389212   -0.603850   -0.019610
C     -0.033177   -0.157195   -0.206650
C     -0.485563    0.460658   -1.289487
C     -1.893109    0.755170   -1.104600
C     -2.275197    0.309311    0.080754
C     -1.135373   -0.341850    0.794926
O     -1.421273   -1.705959    0.982232
O     -0.730406   -2.092231    2.038125
H      3.368488    0.230342    0.263975
H      2.316581    1.188250   -0.843419
H      2.034062    1.236462    0.946035
H      1.693380   -1.241581   -0.877295
H      1.475463   -1.210193    0.906237
H      0.103676    0.712321   -2.161764
H     -2.533857    1.261219   -1.814284
H     -3.281059    0.402185    0.468967
H     -0.924069    0.206506    1.743237
18

C     -2.041078    0.973715    0.569757
C     -1.466416   -0.251154   -0.138587
O     -1.901839   -0.253980   -1.477522
O     -1.714286   -1.480461   -1.929398
C      0.038921   -0.225868   -0.069613
C      0.833601    0.537728   -0.807615
C      2.257914    0.335027   -0.408321
C      2.115820   -0.661790    0.695746
C      0.843551   -0.971318    0.882167
H     -1.703860    1.907641    0.070537
H     -3.150839    0.936918    0.542321
H     -1.715601    0.991874    1.632192
H     -1.847083   -1.152681    0.397930
H      0.494079    1.218981   -1.577239
H      2.848404   -0.086233   -1.248889
H      2.700600    1.280908   -0.031458
H      2.933546   -1.074617    1.271563
H      0.474566   -1.664681    1.626429
18

C     -2.584537   -0.295225   -0.118110
C     -1.619863    0.611109    0.638334
C     -0.198718    0.247421    0.330347
C      0.511364    0.727977   -0.679861
C      1.857438    0.080498   -0.719592
O      2.854957    1.044846   -0.503126
O      3.999854    0.463444   -0.808075
C      1.760096   -0.862657    0.442036
C      0.579078   -0.759961    1.028411
H     -3.629883   -0.013174    0.127901
H     -2.435346   -0.187669   -1.213884
H     -2.424353   -1.355883    0.171641
H     -1.798661    0.508172    1.730166
H     -1.809649    1.669939    0.357679
H      0.156110    1.470088   -1.383582
H      1.988411   -0.465267   -1.682377
H      2.538368   -1.544440    0.759019
H      0.255333   -1.339217    1.883085
22

C      0.468914    1.526389   -0.682963
C     -0.059011    0.156433   -0.236989
C      0.936224   -0.574387    0.692640
C      2.234312   -0.999416   -0.006421
O      3.107942    0.093786   -0.110940
O      4.179545   -0.359443   -0.732526
C     -1.393358    0.353166    0.509735
C     -2.359060   -0.822157    0.447544
C     -2.633858    0.430242   -0.369569
H      0.766810    2.139095    0.194921
H     -0.315242    2.073738   -1.248633
H      1.339035    1.407303   -1.360630
H     -0.215882   -0.464464   -1.148443
H      1.175264    0.056310    1.577583
H      0.445736   -1.497782    1.072930
H      2.714164   -1.796655    0.605801
H      2.003829   -1.418670   -1.012478
H     -1.431968    0.953432    1.444491
H     -2.033033   -1.694408   -0.158631
H     -3.010740   -0.929121    1.340221
H     -2.471364    0.301956   -1.461188
H     -3.448259    1.064651    0.039426
22

C     -0.185017   -1.668056   -1.006544
C      0.022615   -0.196289   -0.622971
C      0.892060   -0.107016    0.651483
C      1.770830    1.129861    0.775955
C      2.393761   -0.209223    0.417529
C     -1.327170    0.563157   -0.467620
C     -2.206383    0.022597    0.667747
O     -1.091856    1.932139   -0.228005
O     -0.836307    2.485164   -1.399622
H     -0.867733   -1.749391   -1.878929
H     -0.605123   -2.249556   -0.159266
H      0.787862   -2.124609   -1.288001
H      0.559417    0.272942   -1.478715
H      0.551559   -0.565091    1.604436
H      1.964495    1.451766    1.820808
H      1.735422    1.848060   -0.070720
H      2.726592   -0.281171   -0.640112
H      2.960569   -0.676424    1.250381
H     -1.918296    0.432741   -1.406675
H     -2.473417   -1.040163    0.496180
H     -1.701427    0.125302    1.650255
H     -3.152454    0.603261    0.708285
22

C      2.005703    0.868437   -0.385494
C      1.324561    0.220307    0.832646
O      2.177226   -0.748810    1.400602
O      3.079306   -0.094463    2.109165
C     -0.034949   -0.439463    0.477793
C      0.131057   -1.582167   -0.545653
C     -1.074876    0.651215    0.083185
C     -2.522819    0.178117    0.160599
C     -1.915864    0.524781   -1.186645
H      2.886145    1.458190   -0.053903
H      1.311082    1.558310   -0.908749
H      2.358902    0.094604   -1.098600
H      1.111468    1.023645    1.579540
H     -0.403344   -0.906508    1.419011
H      0.415626   -1.189224   -1.543920
H      0.913931   -2.294712   -0.211069
H     -0.813257   -2.157963   -0.639093
H     -0.960001    1.677437    0.495180
H     -2.683928   -0.910623    0.311502
H     -3.241777    0.937558    0.535016
H     -1.782644   -0.359266   -1.840665
H     -2.281546    1.490597   -1.594569
22

C      1.810835    0.643797   -1.341683
C      0.979766   -0.533110   -0.817516
C      0.382114   -0.340854    0.616279
C     -0.003669   -1.735359    1.149897
O      1.391354    0.130250    1.496349
O      1.474931    1.444307    1.378143
C     -0.906413    0.560492    0.714957
C     -2.139625    0.096600   -0.057109
C     -1.414137    1.359421   -0.485257
H      1.273448    1.607829   -1.246237
H      2.046755    0.479085   -2.414179
H      2.771185    0.711080   -0.788001
H      1.658565   -1.414854   -0.816429
H      0.180210   -0.773824   -1.547965
H     -0.479252   -1.650931    2.151265
H      0.900000   -2.373588    1.259664
H     -0.706606   -2.255552    0.465607
H     -1.169281    0.977407    1.711488
H     -2.014588   -0.742656   -0.771912
H     -3.108240    0.292675    0.449841
H     -0.951533    1.235580   -1.482896
H     -1.975818    2.282202   -0.228425
22

C     -2.289693   -1.262831    0.079687
C     -0.772357   -1.123383    0.221056
C     -0.303858    0.343509    0.407111
C     -0.706518    1.239877   -0.783762
O     -0.234218    2.547972   -0.585380
O     -0.592299    3.228113   -1.657604
C      1.212972    0.511056    0.726051
C      2.173606    0.107003   -0.387870
C      2.129857   -0.700320    0.897845
H     -2.811059   -0.712090    0.891200
H     -2.569188   -2.335570    0.146410
H     -2.629649   -0.885796   -0.907068
H     -0.482329   -1.708196    1.120339
H     -0.287799   -1.578148   -0.669295
H     -0.837711    0.736258    1.300779
H     -1.815370    1.268832   -0.866882
H     -0.289312    0.818407   -1.726386
H      1.534440    1.431368    1.259813
H      3.073944    0.750648   -0.480818
H      1.740020   -0.427332   -1.259011
H      1.740502   -1.723579    0.729912
H      3.016018   -0.525797    1.543874
22

C     -2.650738    0.530484   -0.192455
C     -1.167751    0.770769    0.095359
C     -0.261404   -0.376022   -0.416430
C     -0.431203   -1.648222    0.431881
C      1.220851    0.095896   -0.562608
O      1.648275    0.475631   -1.846097
O      1.092208    1.647521   -2.082690
C      2.340914   -0.557635    0.250262
C      1.883844    0.852799    0.587066
H     -3.233212    1.429091    0.101432
H     -3.032820   -0.331521    0.391882
H     -2.812806    0.346194   -1.275659
H     -0.882472    1.723284   -0.400063
H     -1.033617    0.911264    1.189516
H     -0.597670   -0.640959   -1.443601
H     -1.466669   -2.037261    0.348283
H      0.245561   -2.448368    0.063906
H     -0.217882   -1.442051    1.502285
H      3.341261   -0.575352   -0.232897
H      2.089554   -1.271341    1.060071
H      1.315970    0.907379    1.539224
H      2.609804    1.638419    0.287214
22

C     -2.811911    0.277239    0.337856
C     -1.431976   -0.370964    0.463879
C     -0.292982    0.511516   -0.098128
C     -0.360569    0.628814   -1.633166
C      1.073665    0.029436    0.465694
C      1.506413   -1.378251    0.063359
C      2.264403   -0.172849   -0.471562
O      3.506399   -0.027700    0.154775
O      3.864641    1.217317   -0.084312
H     -3.559302   -0.340837    0.878715
H     -3.125495    0.338721   -0.724296
H     -2.808264    1.294117    0.784479
H     -1.249141   -0.559012    1.545056
H     -1.445507   -1.356425   -0.050128
H     -0.430531    1.539627    0.303428
H      0.431945    1.313704   -2.000918
H     -0.251779   -0.363314   -2.118560
H     -1.327383    1.070062   -1.949401
H      1.317367    0.272956    1.522750
H      0.882343   -1.889895   -0.698529
H      2.030796   -1.942790    0.864033
H      2.216866   -0.091472   -1.578175
22

C     -2.516982    0.632433    0.794317
C     -1.320157   -0.316783    0.722274
C     -0.303667    0.078723   -0.370209
C     -0.881712   -0.119715   -1.778203
C      0.962857   -0.792429   -0.219969
C      1.992346   -0.267982    0.777172
C      2.291931   -0.224873   -0.714319
O      2.209305    1.059996   -1.266452
O      3.435869    1.538173   -1.211353
H     -3.149164    0.539560   -0.112684
H     -2.174743    1.683481    0.903129
H     -3.140894    0.372376    1.675305
H     -0.814416   -0.296636    1.712740
H     -1.684023   -1.354084    0.552822
H     -0.057186    1.156970   -0.244784
H     -0.105920    0.092065   -2.544487
H     -1.237958   -1.163544   -1.913971
H     -1.724782    0.578723   -1.957942
H      0.876164   -1.900042   -0.254021
H      2.548860   -1.060224    1.320351
H      1.774552    0.721285    1.234774
H      3.019720   -0.957477   -1.127639
22

C     -2.803836    0.428565    0.036928
C     -1.511398   -0.383037    0.150260
C     -0.232859    0.486909    0.068687
C     -0.015058    1.040847   -1.350624
C      0.963906   -0.284122    0.708437
C      1.344563   -1.581725   -0.004702
C      2.360245   -0.455934    0.092651
O      2.606696    0.123269   -1.155194
O      3.403883    1.143114   -0.908523
H     -3.671650   -0.231525    0.247608
H     -2.929507    0.837113   -0.986304
H     -2.809524    1.259914    0.773352
H     -1.536774   -0.908367    1.130697
H     -1.498654   -1.160454   -0.644280
H     -0.387865    1.371286    0.725275
H      0.815407    1.775648   -1.352738
H      0.183365    0.227752   -2.078972
H     -0.909023    1.598210   -1.694979
H      0.929847   -0.415366    1.811533
H      1.550972   -2.434202    0.676673
H      0.923945   -1.737663   -1.020495
H      3.223320   -0.700233    0.751561
22

C     -2.419507   -0.251416    0.931901
C     -0.937591   -0.465769    0.618099
C     -0.338644    0.649838   -0.276212
C     -1.051058    0.750917   -1.635044
C      1.198473    0.567058   -0.496082
C      1.702338   -0.663763   -1.245910
C      2.025770   -0.494075    0.230326
O      3.362631   -0.132045    0.424195
O      3.408148    0.360052    1.645391
H     -3.039964   -0.407552    0.025090
H     -2.590562    0.771509    1.329489
H     -2.744493   -0.986442    1.698293
H     -0.400451   -0.474092    1.590838
H     -0.814632   -1.460285    0.138612
H     -0.510194    1.613965    0.251402
H     -0.534805    1.487398   -2.287703
H     -1.064979   -0.233622   -2.148540
H     -2.095275    1.103146   -1.503980
H      1.735680    1.497803   -0.781073
H      0.956026   -1.459064   -1.451851
H      2.550165   -0.465028   -1.936187
H      1.602924   -1.308532    0.855798
20

C      0.265043   -1.418272   -1.248892
C      0.146866    0.022766   -0.741711
C      1.487187    0.572320   -0.308610
C      2.209602    0.097614    0.711504
O      1.771971   -0.974713    1.482466
O      2.517672   -1.425822    2.498395
C     -0.887878    0.115235    0.398066
C     -2.325622    0.358453   -0.039868
C     -1.522599    1.484815    0.591864
H      1.036933   -1.481627   -2.045560
H      0.534976   -2.116413   -0.429599
H     -0.705256   -1.745592   -1.679680
H     -0.186766    0.638600   -1.607671
H      1.886176    1.413526   -0.862835
H      3.160183    0.562498    0.943513
H     -0.778078   -0.494954    1.319723
H     -3.092474   -0.078285    0.634150
H     -2.496409    0.482647   -1.130621
H     -1.811604    1.712384    1.639588
H     -1.209924    2.274821   -0.124224
20

C      2.161988   -1.156577   -0.226674
C      1.355168   -0.149793   -0.583010
O      1.477915    0.462680   -1.836543
O      2.405111    0.082167   -2.727082
C      0.277115    0.337472    0.355669
C      0.426706    1.841932    0.595401
C     -1.102108    0.040418   -0.259098
C     -2.235474   -0.169711    0.734991
C     -1.640017   -1.359820   -0.001257
H      2.062658   -1.638905    0.737616
H      2.933710   -1.518937   -0.892348
H      0.377680   -0.161229    1.347643
H      0.305287    2.410073   -0.352227
H     -0.342126    2.189446    1.318242
H      1.428928    2.062600    1.021514
H     -1.395706    0.490657   -1.232196
H     -3.236022    0.135010    0.362082
H     -1.962231   -0.120955    1.810803
H     -2.287950   -1.759250   -0.809753
H     -1.010632   -2.017279    0.636227
20

C      2.389348    0.053561    1.350480
C      1.059557   -0.022655    1.208656
C      0.343729    0.023101   -0.138546
C      0.766549    1.264492   -0.959957
O      0.561918   -1.178797   -0.864007
O      1.832640   -1.230725   -1.220108
C     -1.173049    0.189435    0.159938
C     -1.975241   -1.078741    0.427505
C     -2.154903   -0.327428   -0.885093
H      3.053495    0.159532    0.500567
H      2.827914    0.018591    2.342526
H      0.468426   -0.110657    2.117386
H      0.547505    2.197513   -0.396446
H      1.850537    1.258246   -1.196525
H      0.209134    1.293254   -1.920840
H     -1.521825    1.083218    0.722675
H     -2.819485   -0.947115    1.136770
H     -1.437179   -2.044682    0.328523
H     -3.104426    0.245138   -0.945804
H     -1.724643   -0.845279   -1.767701
20

C     -1.665184   -0.779348    1.615921
C     -1.274009   -1.021953    0.359085
C     -0.330482   -0.113579   -0.398378
C     -0.936166    1.282659   -0.606339
O     -2.141410    1.177742   -1.319067
O     -2.590205    2.411126   -1.451656
C      1.017800   -0.004608    0.341646
C      2.238444    0.204387   -0.543546
C      1.988966   -1.151087    0.099351
H     -1.315426    0.094313    2.156278
H     -2.342771   -1.464998    2.114048
H     -1.646645   -1.912385   -0.138966
H     -0.178815   -0.562131   -1.406652
H     -0.213308    1.903066   -1.184437
H     -1.112197    1.771439    0.379284
H      1.075502    0.465022    1.347337
H      3.057683    0.783527   -0.067639
H      2.055029    0.225532   -1.639127
H      2.659444   -1.373709    0.956043
H      1.653750   -1.935015   -0.613185
20

C      2.370419    0.102952   -0.771998
C      1.480358   -0.849559   -0.469136
C      0.264028   -0.602645    0.396073
C      0.658123   -0.134248    1.801306
C     -0.721490    0.380514   -0.279718
O     -0.300224    1.693905   -0.547399
O     -0.545387    2.383227    0.549730
C     -2.222659    0.171525   -0.111509
C     -1.543304   -0.205763   -1.420950
H      3.224886   -0.134773   -1.397102
H      2.263050    1.116972   -0.402425
H      1.640344   -1.850488   -0.859631
H     -0.243678   -1.585045    0.524811
H      1.208680    0.829026    1.768249
H     -0.251518   -0.003856    2.425586
H      1.306506   -0.895042    2.286332
H     -2.840612    1.092252   -0.176271
H     -2.515417   -0.697866    0.514575
H     -1.771739    0.491849   -2.254956
H     -1.460367   -1.302937   -1.575567
20

C      2.304543   -0.247878    1.194910
C      1.828104    0.479324    0.177183
C      0.569427    0.112707   -0.574905
C      0.726695   -1.231274   -1.292875
C     -0.639342    0.070435    0.378594
C     -1.275889    1.420483    0.689730
C     -1.969895    0.451332   -0.255646
O     -3.075400   -0.167140    0.337822
O     -3.295075   -1.244299   -0.388438
H      1.798462   -1.147597    1.529751
H      3.212179    0.060925    1.703024
H      2.366265    1.375071   -0.119135
H      0.414866    0.887753   -1.359606
H      1.609655   -1.203743   -1.966783
H     -0.174435   -1.438286   -1.908838
H      0.854601   -2.060691   -0.564931
H     -0.689340   -0.681457    1.196192
H     -0.816657    2.297794    0.185973
H     -1.722268    1.488183    1.704835
H     -2.026495    0.778358   -1.317765
20

C      2.263494    0.205992   -1.450493
C      1.009897   -0.166809   -1.734911
C     -0.025122   -0.421429   -0.663041
C      0.385278   -1.644559    0.174583
C     -0.270815    0.888016    0.143804
C     -0.358266    0.860708    1.671361
C     -1.626165    1.001790    0.846805
O     -2.402156   -0.163993    0.885146
O     -3.352338    0.025957   -0.007697
H      2.973360    0.379077   -2.252686
H      2.587341    0.345096   -0.423690
H      0.724565   -0.287606   -2.776107
H     -0.965151   -0.683491   -1.195626
H      0.633999   -2.497593   -0.492938
H     -0.452217   -1.971554    0.824958
H      1.273234   -1.417232    0.802129
H      0.038179    1.857747   -0.304012
H     -0.269442   -0.110261    2.198451
H     -0.045303    1.806771    2.161155
H     -2.122373    1.993375    0.941901
18

C      1.984004    1.499749    1.501961
C      1.351298    0.672097    0.894399
C      0.577287   -0.338638    0.153511
C      1.513807   -0.920562   -0.930959
O      0.162805   -1.314314    1.097207
O     -0.158913   -2.419586    0.447152
C     -0.613976    0.390848   -0.529488
C     -2.017404   -0.208054   -0.465756
C     -1.656580    0.970705    0.421468
H      2.538998    2.226145    2.035006
H      1.956281   -0.108305   -1.549115
H      2.339941   -1.496543   -0.460276
H      0.956385   -1.593790   -1.617209
H     -0.409811    1.051040   -1.400758
H     -2.683858    0.074973   -1.307636
H     -2.197059   -1.127903    0.124092
H     -2.098548    1.934605    0.091155
H     -1.544658    0.707534    1.495248
18

C      1.225302    2.609238   -0.775133
C      0.865088    1.466530   -0.640092
C      0.424759    0.072719   -0.476457
C      1.558917   -0.780367    0.107405
O      1.934253   -0.301897    1.374281
O      2.901622   -1.097765    1.787577
C     -0.812526    0.033596    0.438020
C     -1.751543   -1.143427    0.215743
C     -2.148999    0.245388   -0.259417
H      1.541449    3.612169   -0.893451
H      0.184501   -0.323383   -1.488312
H      2.430381   -0.750168   -0.586925
H      1.210856   -1.835930    0.185205
H     -0.756571    0.409104    1.482913
H     -2.290991   -1.479155    1.126409
H     -1.479109   -1.840888   -0.605181
H     -2.924170    0.731215    0.369991
H     -2.113219    0.373021   -1.362577
18

C      2.838107    1.022593   -0.217726
C      1.840699    0.345426   -0.199779
C      0.623741   -0.479853   -0.179188
C      0.745540   -1.564799    0.892118
C     -0.611108    0.412250    0.065089
O     -0.630541    1.245091    1.197055
O     -1.116356    0.510368    2.178431
C     -1.963494   -0.006743   -0.499635
C     -1.170066    1.106460   -1.170892
H      3.713410    1.617072   -0.233322
H      0.540397   -0.987020   -1.165713
H      1.585740   -2.249349    0.646132
H      0.935245   -1.119545    1.892398
H     -0.188673   -2.164475    0.934611
H     -2.846979    0.351611    0.070285
H     -1.965363   -0.965104   -1.061179
H     -0.731901    0.808526   -2.147449
H     -1.598399    2.117493   -1.001236
18

C     -1.733977    1.535113   -1.438394
C     -1.334204    0.856887   -0.524903
C     -0.848461    0.026476    0.596311
C     -1.670688   -1.260296    0.672455
C      0.661864   -0.319887    0.550556
C      1.277476   -0.631604   -0.810763
C      1.598281    0.685207   -0.111692
O      2.890591    0.691325    0.423907
O      2.883575    1.655360    1.321909
H     -2.084079    2.130248   -2.240252
H     -1.025950    0.600112    1.530822
H     -1.360414   -1.860659    1.554437
H     -2.751173   -1.022589    0.780168
H     -1.525906   -1.871261   -0.244943
H      1.102277   -0.886737    1.399656
H      0.607189   -0.533058   -1.689893
H      2.090078   -1.388559   -0.778173
H      1.223521    1.593923   -0.631196
18

C     -2.076106    1.622478   -1.639826
C     -1.619622    0.921370   -0.771532
C     -1.061944    0.066148    0.288163
C     -1.051299   -1.394918   -0.182572
C      0.273311    0.685462    0.793516
C      1.404780    0.718643   -0.235966
C      1.572000   -0.091775    1.040060
O      1.527902   -1.472946    0.828907
O      2.779400   -1.832915    0.626807
H     -2.476477    2.237811   -2.401986
H     -1.770742    0.116730    1.142169
H     -0.830549   -2.072565    0.668113
H     -2.058548   -1.678144   -0.558512
H     -0.324211   -1.557984   -1.004670
H      0.193995    1.644061    1.350707
H      1.266166    0.111106   -1.154486
H      1.993556    1.660070   -0.243133
H      2.258389    0.317367    1.814253
20

C      0.048647    1.796688   -0.678412
C      0.001145    0.692767    0.085876
C      1.254669    0.234024    0.794276
C      2.384798   -0.193954   -0.134106
C      1.606293   -1.240222    0.640753
C     -1.317322   -0.010593    0.345386
C     -1.843606   -0.659141   -0.941755
O     -2.249706    0.923138    0.840228
O     -3.190974    0.230094    1.454547
H      0.982516    2.330991   -0.826102
H     -0.843843    2.182809   -1.160929
H      1.580438    0.731464    1.732261
H      3.405096   -0.009064    0.263367
H      2.159217   -0.187884   -1.222583
H      0.933281   -1.851128    0.002897
H      2.166360   -1.672084    1.496734
H     -1.140431   -0.816988    1.096732
H     -2.106213    0.114724   -1.693840
H     -1.078104   -1.337685   -1.374342
H     -2.752262   -1.257956   -0.720987
20

C      0.713259   -0.428219   -1.660028
C      0.440379   -0.092791   -0.389401
C      1.480430    0.613055    0.450994
C      2.657331   -0.306075    0.769538
C     -0.878466   -0.495804    0.226145
C     -1.684394    0.650768    0.832319
C     -2.116250    0.035801   -0.486458
O     -3.213482   -0.825015   -0.369324
O     -4.267502   -0.076269   -0.623882
H      1.662929   -0.163668   -2.114975
H     -0.011412   -0.969192   -2.261191
H      1.844091    1.516852   -0.084247
H      1.034983    0.948702    1.411873
H      2.301586   -1.215010    1.300298
H      3.182944   -0.606890   -0.161277
H      3.378669    0.227847    1.423408
H     -0.978664   -1.479436    0.732897
H     -1.260331    1.671237    0.717365
H     -2.311854    0.363680    1.702857
H     -1.974247    0.630427   -1.416911
20

C      0.867648   -1.450131   -0.879333
C      0.384151   -0.383766   -0.221807
C      0.966696    0.988988   -0.469559
C      2.407897    1.084348    0.026535
C     -0.676835   -0.562993    0.842438
C     -1.910707   -1.360909    0.428073
C     -2.012031    0.143590    0.602158
O     -2.151222    0.790094   -0.634322
O     -2.281494    2.069116   -0.345413
H      1.643586   -1.337394   -1.630313
H      0.494425   -2.449020   -0.675180
H      0.926281    1.222906   -1.555428
H      0.369927    1.758373    0.064766
H      2.457885    0.841280    1.109515
H      3.064088    0.387707   -0.536579
H      2.783879    2.118356   -0.123155
H     -0.375159   -0.664348    1.906099
H     -2.373013   -1.942714    1.253174
H     -1.944246   -1.707172   -0.628001
H     -2.641756    0.453688    1.466333
18

C      2.810347    0.768032   -0.160533
C      1.635936    0.388343   -0.666703
C      0.326132    0.634414   -0.013204
C      0.135040    1.628643    0.864050
C     -0.861567   -0.167067   -0.475076
C     -0.695189   -1.681415   -0.381862
C     -1.566505   -0.951783    0.624645
O     -2.930561   -1.152921    0.388606
O     -3.535946   -0.170432    1.024343
H      3.723495    0.531706   -0.691285
H      2.892482    1.283806    0.785708
H      1.643318   -0.178534   -1.589969
H     -0.847850    1.814087    1.279910
H      0.932628    2.292370    1.166042
H     -1.495107    0.200833   -1.310398
H      0.266936   -2.042777    0.040916
H     -1.251575   -2.250206   -1.157231
H     -1.182015   -0.947100    1.669183
16

C      3.059128    0.326420   -0.859897
C      2.007263   -0.115433   -0.470349
C      0.748412   -0.641579   -0.004622
C      0.495802   -1.945712   -0.117398
C     -0.220420    0.262128    0.705791
C     -0.575122    1.556411   -0.020896
C     -1.563902    0.404379    0.001049
O     -2.635246    0.643499    0.868290
O     -3.153562   -0.544117    1.106695
H      3.982333    0.714476   -1.201919
H      1.205047   -2.612227   -0.593697
H     -0.426319   -2.365600    0.265400
H     -0.255746    0.282377    1.816190
H     -0.826278    2.402686    0.653608
H     -0.091861    1.710907   -1.009442
H     -1.749529   -0.078616   -0.984514
20

C      2.839281   -0.061468    0.145812
C      1.439717   -0.068299    0.690408
C      0.350542   -0.308621   -0.069277
C      0.470513   -0.657708   -1.532782
C     -1.011540   -0.320435    0.581900
C     -1.438232    1.009597    1.198712
C     -2.061450    0.544595   -0.104371
O     -3.371481    0.086232    0.069687
O     -3.621288   -0.647047   -0.996040
H      3.097089   -1.061599   -0.260936
H      3.554349    0.183423    0.958832
H      2.935258    0.704541   -0.652039
H      1.313437    0.140872    1.749718
H      1.120219   -1.548665   -1.661368
H     -0.522596   -0.896521   -1.967959
H      0.901115    0.199384   -2.091691
H     -1.369189   -1.226968    1.115330
H     -2.091449    0.910245    2.091910
H     -0.726419    1.854404    1.076820
H     -1.807876    1.164037   -0.993573
20

C      1.968539    0.274072    1.295388
C      1.528916   -0.776254    0.315357
C      0.480248   -0.622204   -0.520438
C      0.210603   -1.695690   -1.543050
C     -0.336068    0.653680   -0.537809
C     -1.850320    0.481408   -0.650829
C     -1.227553    0.846373    0.683050
O     -1.387602    2.194120    1.024954
O     -2.471690    2.233581    1.772982
H      1.189784    0.430029    2.069577
H      2.900954   -0.055132    1.799790
H      2.170847    1.229999    0.767948
H      2.117008   -1.689421    0.266047
H      1.135809   -1.913663   -2.118043
H     -0.127787   -2.621673   -1.032299
H     -0.570298   -1.379244   -2.265576
H      0.090993    1.580713   -0.977046
H     -2.238836   -0.558861   -0.671662
H     -2.374103    1.319372   -1.158128
H     -1.209443    0.068794    1.479788
22

C     -2.809752    1.051126   -0.030168
C     -1.541980    0.392032    0.524550
C     -0.850318   -0.430127   -0.579338
C      0.447420   -1.107110   -0.109915
C      1.555666   -0.082352    0.182271
C      2.974367   -0.594219   -0.019689
C      2.364933    0.373765   -1.022231
O     -1.879766   -0.458162    1.596319
O     -1.993752    0.308165    2.665443
H     -3.291179    1.671938    0.754673
H     -3.533975    0.278633   -0.366877
H     -2.557750    1.711045   -0.887674
H     -0.844485    1.199516    0.849248
H     -0.623535    0.223634   -1.450510
H     -1.548215   -1.222082   -0.930540
H      0.257558   -1.701746    0.808706
H      0.765828   -1.824502   -0.898795
H      1.447365    0.651415    1.008780
H      3.078603   -1.631763   -0.403285
H      3.732899   -0.129425    0.645046
H      2.754822    1.410574   -0.945011
H      2.095245   -0.090358   -1.995122
22

C     -2.634799    1.348469    0.428081
C     -1.180151    0.881947    0.436379
C     -1.055307   -0.601868    0.045032
C      0.386204   -1.113930    0.246856
C      1.384584   -0.445847   -0.713984
C      2.845077   -0.660486   -0.345404
C      2.203573    0.702490   -0.142228
O     -1.455073   -0.765650   -1.297310
O     -1.790043   -2.034757   -1.439999
H     -3.069935    1.247612   -0.588757
H     -3.236513    0.751488    1.146008
H     -2.683420    2.416450    0.728136
H     -0.768322    1.036452    1.457714
H     -0.600138    1.513111   -0.271250
H     -1.721163   -1.181195    0.729875
H      0.681272   -0.972383    1.310696
H      0.406530   -2.208054    0.054554
H      1.189572   -0.423467   -1.807552
H      3.539605   -0.703272   -1.210898
H      3.039453   -1.210127    0.600735
H      2.010623    0.960242    0.921021
H      2.508369    1.462773   -0.891822
22

C      2.992821    0.619675   -0.110600
C      1.467799    0.644629   -0.066917
C      0.915254   -0.587864    0.666917
C     -0.623216   -0.581950    0.781909
O     -1.068612    0.584269    1.441930
O     -0.868295    0.389594    2.732380
C     -1.270481   -0.738630   -0.614125
C     -2.769226   -0.474469   -0.668183
C     -1.801417    0.508534   -1.310896
H      3.364096    1.516847   -0.649375
H      3.408777    0.626932    0.919442
H      3.348671   -0.287509   -0.643994
H      1.141455    1.572677    0.450123
H      1.085662    0.668803   -1.109713
H      1.238583   -1.510664    0.136172
H      1.349333   -0.627567    1.689990
H     -0.926217   -1.490000    1.355739
H     -0.939230   -1.565616   -1.278612
H     -3.323126   -1.098533   -1.401057
H     -3.243262   -0.096167    0.262382
H     -1.778826    0.455844   -2.419757
H     -1.700543    1.471164   -0.767873
22

C      3.178283    0.771774    0.672377
C      2.220950   -0.246408    0.059933
C      0.835184    0.366433   -0.171806
C     -0.123590   -0.656955   -0.786838
C     -1.495912   -0.018203   -1.030698
C     -2.660042   -0.998009   -1.112891
C     -2.475312   -0.136009    0.127620
O     -3.402021    0.909990    0.190045
O     -2.873394    1.785929    1.020279
H      4.171588    0.300776    0.828810
H      3.301101    1.642774   -0.006114
H      2.792875    1.122234    1.653567
H      2.136020   -1.117451    0.745832
H      2.641511   -0.599094   -0.907067
H      0.927963    1.240054   -0.854557
H      0.420831    0.718961    0.798736
H     -0.199879   -1.542066   -0.115802
H      0.278518   -1.000244   -1.764325
H     -1.590934    0.883634   -1.673671
H     -3.480240   -0.675264   -1.789295
H     -2.404553   -2.068869   -0.963190
H     -2.198947   -0.683988    1.055905
22

C      3.286569    0.870701   -0.264282
C      2.122324    0.093718   -0.871803
C      0.931848    0.036561    0.092169
C     -0.234693   -0.744872   -0.519184
C     -1.406973   -0.815486    0.472766
C     -2.772893   -1.022495   -0.172726
C     -2.428695    0.318100    0.461912
O     -2.162667    1.330700   -0.468921
O     -3.314584    1.944700   -0.648362
H      2.979131    1.914613   -0.041105
H      4.132271    0.895715   -0.983396
H      3.630604    0.381204    0.671720
H      2.463071   -0.937849   -1.108603
H      1.814880    0.589274   -1.818513
H      0.597812    1.071377    0.326622
H      1.247373   -0.455330    1.038967
H      0.093807   -1.784018   -0.736758
H     -0.532177   -0.278181   -1.484228
H     -1.275247   -1.340933    1.442829
H     -2.801938   -1.013029   -1.283881
H     -3.479733   -1.629669    0.430848
H     -2.890090    0.575198    1.440780
20

C      2.716370   -0.471171    1.132384
C      2.362961    0.221967    0.045575
C      0.951732    0.724910   -0.151653
C      0.016732   -0.444999   -0.494170
C     -1.433250    0.040526   -0.643326
C     -2.496159   -1.022050   -0.408682
C     -2.255913    0.057268    0.636182
O      0.925179    1.657515   -1.207304
O      1.381218    2.795049   -0.715554
H      1.992046   -0.704160    1.907014
H      3.741200   -0.806836    1.252837
H      3.120659    0.453844   -0.697794
H      0.590908    1.192582    0.796774
H      0.095109   -1.229400    0.291819
H      0.332999   -0.902728   -1.456692
H     -1.696581    0.808332   -1.402136
H     -3.428922   -0.878871   -0.994043
H     -2.131558   -2.027984   -0.109002
H     -3.042220    0.840774    0.664982
H     -1.742508   -0.304568    1.552790
20

C      3.185356    0.107386    0.541999
C      2.321577    0.582399   -0.360139
C      0.900411    0.925487    0.000312
C      0.017675   -0.329009    0.099402
O      0.435566   -1.101366    1.200269
O      0.002580   -2.329927    0.986102
C     -1.447314    0.099606    0.310548
C     -2.498231   -0.848914   -0.249003
C     -2.210937    0.466786   -0.954245
H      2.886939   -0.054619    1.573079
H      4.206699   -0.114662    0.250453
H      2.663468    0.759389   -1.375724
H      0.877405    1.494911    0.955964
H      0.499159    1.590388   -0.795454
H      0.136751   -0.898733   -0.855677
H     -1.742955    0.656840    1.225475
H     -2.121500   -1.740146   -0.794967
H     -3.457039   -0.857031    0.311052
H     -2.997640    1.236849   -0.808879
H     -1.657970    0.354366   -1.911475
20

C      3.093841    0.941679    0.263522
C      2.571102    0.186646   -0.707280
C      1.305287   -0.599583   -0.503829
C      0.083830    0.321725   -0.432013
C     -1.198395   -0.506589   -0.288070
C     -1.614761   -0.835034    1.140724
C     -2.359371    0.235776    0.356521
O     -3.617703   -0.202041   -0.070149
O     -3.951002    0.615897   -1.047792
H      2.610971    1.019237    1.232954
H      4.016722    1.485634    0.090764
H      3.090634    0.113054   -1.658153
H      1.386665   -1.201967    0.427582
H      1.183962   -1.301045   -1.357861
H      0.012179    0.912088   -1.371030
H      0.201416    1.036626    0.412986
H     -1.473606   -1.256477   -1.061164
H     -2.152075   -1.801851    1.244662
H     -0.952084   -0.438082    1.939275
H     -2.237611    1.274309    0.737442
20

C      3.065753    0.194931    0.513461
C      2.201513   -0.351720   -0.346532
C      1.017164   -1.155324    0.121646
C     -0.048101   -0.283618    0.799369
C     -0.650110    0.734858   -0.186418
C     -2.064898    1.189346    0.155926
C     -1.827070    0.291764   -1.050731
O     -2.225479   -1.036505   -0.852156
O     -3.459507   -1.097872   -1.309886
H      2.934813    0.082564    1.585380
H      3.916387    0.758131    0.143823
H      2.371960   -0.237652   -1.412972
H      1.362524   -1.936351    0.833413
H      0.564771   -1.676109   -0.749757
H      0.404233    0.270597    1.649306
H     -0.826877   -0.949785    1.230835
H     -0.007610    1.534487   -0.613223
H     -2.552924    0.684248    1.017446
H     -2.287695    2.243106   -0.113423
H     -1.888846    0.740905   -2.066414
18

C      2.653061   -1.584943   -1.025850
C      2.109431   -0.671467   -0.456901
C      1.445763    0.441297    0.237543
C      0.073773    0.729454   -0.398223
C     -0.900233   -0.443150   -0.191815
C     -2.374553   -0.069685   -0.221531
C     -1.702886   -0.411548    1.099965
O      2.272097    1.575465    0.135407
O      1.943352    2.373321    1.134882
H      3.129787   -2.386843   -1.525388
H      1.313838    0.135848    1.302795
H     -0.337335    1.666502    0.038946
H      0.194191    0.904841   -1.489670
H     -0.664679   -1.451547   -0.594600
H     -3.045388   -0.868443   -0.602565
H     -2.608771    1.009825   -0.341615
H     -1.530394    0.464315    1.761569
H     -1.971055   -1.413242    1.497064
18

C      3.572541    0.913959   -0.779405
C      2.480413    0.410311   -0.862724
C      1.149872   -0.202985   -0.964191
C      0.379512   -0.063176    0.354601
O      0.174555    1.310519    0.625166
O      0.540594    1.519526    1.876618
C     -0.953793   -0.839047    0.244740
C     -2.135005   -0.099047   -0.368765
C     -2.105032   -0.377404    1.128334
H      4.531144    1.356214   -0.705960
H      0.589367    0.289352   -1.787810
H      1.279272   -1.277296   -1.217670
H      0.981962   -0.571748    1.147750
H     -0.929938   -1.932441    0.046817
H     -1.972700    0.966287   -0.636280
H     -2.840267   -0.746683   -0.931178
H     -1.943167    0.528841    1.747550
H     -2.799330   -1.185182    1.442418
18

C      3.294736    1.021671   -0.105911
C      2.509276    0.132188    0.106656
C      1.551348   -0.951079    0.366133
C      0.363740   -0.892786   -0.599280
C     -0.498985    0.354945   -0.351860
C     -1.943762    0.236159   -0.823122
C     -1.618804    0.185726    0.663310
O     -1.906310    1.375211    1.341895
O     -3.118617    1.207974    1.830322
H      3.983887    1.802734   -0.292717
H      2.076513   -1.921328    0.239571
H      1.194940   -0.883225    1.416195
H      0.732283   -0.873533   -1.648017
H     -0.232360   -1.824449   -0.476352
H     -0.060758    1.371483   -0.454184
H     -2.243745   -0.745629   -1.247465
H     -2.396731    1.191487   -1.164195
H     -1.686650   -0.787548    1.199020
18

C      3.657027    0.836487    0.827051
C      2.585318    0.284567    0.812358
C      1.281035   -0.387151    0.795112
C      0.515665   -0.037211   -0.481456
C     -0.837324   -0.766051   -0.507673
C     -1.866935   -0.148667   -1.446423
C     -2.057987   -0.045405    0.060089
O     -1.835749    1.254987    0.530593
O     -1.803589    1.144848    1.843060
H      4.597736    1.321087    0.839764
H      1.444370   -1.484682    0.851605
H      0.702665   -0.065032    1.686536
H      1.102826   -0.372780   -1.364010
H      0.397302    1.066641   -0.557055
H     -0.865868   -1.875932   -0.466776
H     -2.536806   -0.886952   -1.935695
H     -1.568403    0.798329   -1.946658
H     -2.911283   -0.637082    0.459577
20

C      3.093415    0.983451   -0.157466
C      1.848153    0.282230    0.288357
C      1.009919   -0.269319   -0.602592
C     -0.248690   -0.983938   -0.183248
O      0.087499   -2.010304    0.719452
O     -0.934992   -2.845213    0.737572
C     -1.215485    0.012820    0.486747
C     -2.697200   -0.241482    0.248309
C     -1.997400    0.900758   -0.470834
H      2.831373    1.838636   -0.815671
H      3.644592    1.366646    0.726600
H      3.748249    0.277675   -0.710884
H      1.630580    0.225641    1.351420
H      1.243479   -0.213335   -1.662917
H     -0.695839   -1.416197   -1.111246
H     -0.959949    0.476909    1.463638
H     -2.953108   -1.097642   -0.411798
H     -3.360097    0.088791    1.075645
H     -1.830479    0.718204   -1.554158
H     -2.244021    1.905667   -0.067834
20

C      3.090145   -1.411714    0.201633
C      1.659537   -1.197853   -0.184145
C      1.239314   -0.011178   -0.644703
C     -0.190272    0.215200   -1.047602
C     -1.109118    0.174263    0.179867
C     -1.268011    1.492792    0.927358
C     -2.390861    0.981219    0.036436
O     -3.463826    0.475613    0.778224
O     -4.132865   -0.285778   -0.063550
H      3.370325   -0.714010    1.018914
H      3.749143   -1.238164   -0.675192
H      3.230837   -2.454330    0.555747
H      0.959914   -2.023556   -0.085693
H      1.947028    0.806118   -0.756944
H     -0.504271   -0.574611   -1.763155
H     -0.261286    1.191626   -1.576001
H     -1.185823   -0.747302    0.796806
H     -1.442163    1.376320    2.018406
H     -0.708523    2.355529    0.506578
H     -2.589225    1.589816   -0.873890
20

C      3.311850    0.461248    0.180452
C      1.854261    0.162533    0.345829
C      1.244534   -0.746793   -0.427490
C     -0.214350   -1.065385   -0.264943
C     -1.077936    0.113884   -0.741306
C     -1.612391    1.028205    0.356484
C     -2.556894    0.079305   -0.367853
O     -2.936301   -1.029815    0.399805
O     -4.062717   -0.675090    0.984265
H      3.507402    0.836520   -0.846269
H      3.909627   -0.457497    0.358715
H      3.620388    1.237752    0.911265
H      1.292684    0.696205    1.107549
H      1.815906   -1.289165   -1.176403
H     -0.456411   -1.947475   -0.894891
H     -0.413729   -1.341842    0.793950
H     -0.858466    0.605240   -1.713666
H     -1.374423    0.735977    1.401987
H     -1.726141    2.089484    0.051513
H     -3.266893    0.506710   -1.109899
20

C      2.096272    1.418887   -0.333521
C      2.136987    0.139821    0.450169
C      1.188014   -0.811386    0.387402
C     -0.059006   -0.732005   -0.467227
O     -0.120832   -1.857747   -1.307880
O      0.733832   -1.639696   -2.290749
C     -1.281046   -0.762656    0.461614
C     -2.552168   -0.156102   -0.114783
C     -1.771980    0.590096    0.957070
H      2.089551    1.200117   -1.422087
H      1.196234    2.007668   -0.059168
H      2.996802    2.025336   -0.102301
H      2.987943   -0.025831    1.104629
H      1.319870   -1.700144    0.998869
H     -0.081787    0.198434   -1.081314
H     -1.439790   -1.617796    1.153904
H     -3.491930   -0.618280    0.254538
H     -2.469398    0.292912   -1.127803
H     -2.249754    0.566693    1.959154
H     -1.227815    1.481677    0.579485
20

C      2.196838    0.041810    1.061517
C      2.255069   -0.901602   -0.103811
C      1.361124   -0.906198   -1.108221
C      0.193597    0.040455   -1.212357
C     -0.923670   -0.357006   -0.238145
C     -1.249454    0.639404    0.871515
C     -2.158716    0.528081   -0.340162
O     -3.345017   -0.169788   -0.085433
O     -4.229274    0.756240    0.225974
H      1.295400   -0.163491    1.673253
H      2.187409    1.094363    0.709324
H      3.091209   -0.105834    1.702157
H      3.076915   -1.610788   -0.142519
H      1.509407   -1.613635   -1.919279
H      0.534532    1.088599   -1.068915
H     -0.211699   -0.031037   -2.244596
H     -1.139653   -1.428779   -0.034657
H     -1.649020    0.174278    1.797666
H     -0.644037    1.570115    0.891744
H     -2.150960    1.354811   -1.085965
20

C      2.718223    0.700334   -0.382374
C      2.212226   -0.713155   -0.393581
C      1.056145   -1.098485    0.175227
C      0.098720   -0.165407    0.869503
C     -0.795252    0.548487   -0.158004
C     -2.173709    0.942623    0.362394
C     -2.039646   -0.182559   -0.654513
O     -2.218204   -1.460418   -0.108745
O     -3.495560   -1.733325   -0.281980
H      2.862199    1.048758    0.661593
H      3.696752    0.747265   -0.904359
H      2.009671    1.370509   -0.909399
H      2.827750   -1.469286   -0.872358
H      0.794123   -2.152090    0.139383
H      0.650703    0.590571    1.465885
H     -0.501824   -0.757553    1.593735
H     -0.353596    1.278672   -0.867695
H     -2.431413    0.606951    1.390187
H     -2.576942    1.882867   -0.068842
H     -2.340366    0.015242   -1.706962
18

C      3.586199   -0.221550    0.103950
C      2.158125   -0.043282    0.365706
C      0.980939    0.103567    0.580763
C     -0.454397    0.282976    0.842231
O     -0.804356    1.636280    0.656509
O     -0.425625    2.277348    1.747247
C     -1.244495   -0.654823   -0.092621
C     -2.698248   -0.282820   -0.350675
C     -1.660313   -0.106478   -1.451523
H      3.753870   -0.307419   -0.989384
H      3.941935   -1.144641    0.606153
H      4.146109    0.652148    0.496378
H     -0.670452   -0.044996    1.885464
H     -1.051242   -1.749031   -0.056883
H     -3.374737   -1.148887   -0.510683
H     -3.058141    0.671597    0.088223
H     -1.400498    0.951200   -1.666724
H     -1.724674   -0.871190   -2.254131
18

C      3.762422    0.130780   -0.701415
C      2.404342    0.144135   -0.158010
C      1.284753    0.155013    0.288987
C     -0.076184    0.167176    0.831265
C     -1.084305    0.328716   -0.308757
C     -1.571404   -0.965660   -0.949621
C     -2.475794   -0.200123    0.005322
O     -3.502089    0.473196   -0.665913
O     -3.922109    1.389449    0.182594
H      4.493954    0.211787    0.128742
H      3.892255    0.988016   -1.393614
H      3.931248   -0.817614   -1.251784
H     -0.176906    1.027794    1.524741
H     -0.240900   -0.768387    1.408938
H     -1.045818    1.219604   -0.972936
H     -1.832190   -0.868029   -2.025143
H     -1.149309   -1.902137   -0.526256
H     -2.691967   -0.713717    0.968662
18

C      3.734848   -0.067108    0.450300
C      2.342516    0.274511    0.159508
C      1.194812    0.555265   -0.079988
C     -0.199975    0.895358   -0.371613
C     -1.122682   -0.201724    0.175345
C     -1.505260   -1.294304   -0.816518
C     -2.538260   -0.259523   -0.392588
O     -2.821864    0.653159   -1.416398
O     -3.422432    1.662123   -0.818729
H      3.923248    0.042658    1.538103
H      4.407762    0.612552   -0.111931
H      3.929774   -1.115859    0.145368
H     -0.306677    1.035079   -1.468716
H     -0.444949    1.854609    0.129914
H     -1.038520   -0.521053    1.236501
H     -1.114721   -1.173831   -1.850275
H     -1.649749   -2.293427   -0.354176
H     -3.367870   -0.658485    0.231692
20

C      2.677485    0.984734   -0.580757
C      2.393020   -0.510963   -0.474733
C      0.915124   -0.787203   -0.470053
C      0.144646   -0.468060    0.578666
C     -1.323312   -0.780665    0.573576
C     -2.195604    0.258429    1.266944
C     -2.159963    0.184756   -0.251525
O     -3.288201   -0.426900   -0.809526
O     -4.108262    0.562957   -1.099287
H      2.274706    1.522090    0.303951
H      3.774344    1.151395   -0.625258
H      2.216778    1.399562   -1.502813
H      2.857398   -0.919437    0.448937
H      2.852596   -1.024103   -1.346575
H      0.474432   -1.279074   -1.333351
H      0.585807   -0.011366    1.460655
H     -1.677628   -1.833120    0.614980
H     -3.118768   -0.151983    1.728855
H     -1.667942    1.144675    1.680429
H     -1.626656    0.984279   -0.814022
20

C     -2.276693   -0.641887    0.791741
C     -1.762762    0.369318   -0.232569
C     -0.849683   -0.299320   -1.242571
C      0.430095   -0.657128   -1.026151
C      1.170189   -0.400902    0.261672
C      2.686051   -0.394629    0.117842
C      1.936214    0.911796    0.307883
O     -1.117730    1.429974    0.430761
O     -1.057327    2.428883   -0.430714
H     -1.450653   -1.056213    1.402657
H     -2.797086   -1.477891    0.276894
H     -3.000495   -0.146877    1.473520
H     -2.662861    0.746767   -0.773904
H     -1.266855   -0.497796   -2.225872
H      0.962898   -1.141836   -1.839821
H      0.812725   -0.815391    1.226038
H      3.095938   -0.521993   -0.907369
H      3.241436   -0.721693    1.022260
H      2.030661    1.347874    1.324662
H      1.875935    1.538944   -0.607864
20

C      2.230901   -0.225311    1.016930
C      2.007958   -0.843393   -0.360116
C      1.320810    0.119822   -1.294737
C      0.003002    0.383197   -1.275115
C     -0.951052   -0.254980   -0.298426
C     -1.377619    0.647332    0.852520
C     -2.341339    0.365710   -0.288294
O     -3.341419   -0.555448    0.044431
O     -4.360874    0.173967    0.450831
H      2.808512   -0.931344    1.649948
H      1.263895   -0.019474    1.518333
H      2.805451    0.721260    0.926132
H      1.428953   -1.786925   -0.271045
H      2.999621   -1.102588   -0.789259
H      1.928149    0.604906   -2.053648
H     -0.386183    1.083635   -2.009146
H     -0.925401   -1.349090   -0.105965
H     -0.952362    1.673935    0.841368
H     -1.596466    0.104572    1.796660
H     -2.564540    1.190218   -1.002309
20

C      2.638932   -0.317985   -0.370667
C      1.614616   -0.633401    0.714803
C      0.881470    0.609980    1.148815
C     -0.179543    1.120477    0.501101
C     -0.766820    0.494467   -0.739524
C     -2.257378    0.757673   -0.924923
C     -1.776799   -0.628241   -0.525057
O     -2.015528   -0.937665    0.820825
O     -3.167032   -1.578030    0.827699
H      3.183689   -1.245298   -0.646650
H      2.141943    0.081652   -1.278324
H      3.373798    0.428211    0.000260
H      2.151697   -1.051942    1.592780
H      0.904143   -1.409461    0.358632
H      1.226731    1.113534    2.047198
H     -0.631140    2.029096    0.889428
H     -0.184819    0.464853   -1.684040
H     -2.768927    1.316511   -0.111062
H     -2.586526    0.822255   -1.983266
H     -1.782507   -1.436686   -1.288935
18

C      3.669923   -0.378330    0.088735
C      2.563188    0.347077   -0.042290
C      1.243925   -0.292738   -0.165764
C      0.135734    0.437776   -0.294775
C     -1.201395   -0.221398   -0.441813
C     -1.792907   -0.736845    0.864551
C     -2.344430    0.527223    0.225197
O     -3.587673    0.314415   -0.379819
O     -3.737722    1.321077   -1.216492
H      4.630502    0.112131    0.178352
H      3.632527   -1.460649    0.108171
H      2.643135    1.427891   -0.056972
H      1.172104   -1.375015   -0.149075
H      0.194705    1.519742   -0.331364
H     -1.443445   -0.817081   -1.348076
H     -1.184760   -0.553213    1.776713
H     -2.432482   -1.638145    0.750415
H     -2.160929    1.466081    0.794318
18

C      2.714681    0.497396   -1.697099
C      1.550871    0.167905   -1.144448
C      1.485939   -0.792458   -0.024995
C      0.343197   -1.151865    0.570797
C     -1.002386   -0.631307    0.151174
C     -2.010559   -0.493101    1.285726
C     -1.340712    0.743151    0.707100
O     -2.164537    1.478085   -0.152760
O     -2.709039    2.408669    0.604695
H      3.645359    0.071755   -1.342434
H      2.743513    1.203294   -2.517008
H      0.647939    0.620732   -1.534492
H      2.407752   -1.232689    0.337775
H      0.387238   -1.878933    1.372929
H     -1.421538   -0.886705   -0.845920
H     -1.647877   -0.756980    2.302343
H     -3.069521   -0.630356    0.979425
H     -0.560319    1.263407    1.307203
16

C      3.907762   -0.690922   -0.558383
C      2.712596   -0.759395   -0.416349
C      1.286870   -0.841775   -0.247628
C      0.643532    0.024765    0.533274
C     -0.838317   -0.076326    0.727428
C     -1.562796    1.258675    0.842449
C     -1.646131    0.456968   -0.446284
O     -2.890097   -0.163183   -0.604463
O     -2.684806   -1.121466   -1.485094
H      4.956971   -0.630694   -0.682981
H      0.743003   -1.619715   -0.769378
H      1.194153    0.790261    1.069070
H     -1.280592   -0.936026    1.275212
H     -2.475796    1.227130    1.474704
H     -0.923952    2.165156    0.768921
H     -1.142400    0.916548   -1.326209
16

C      2.192848    0.330105    2.375171
C      1.637285   -0.520517    1.726343
C      0.972808   -1.536808    0.949449
C     -0.057052   -1.264127    0.143397
C     -0.627865    0.117839   -0.005974
C      0.153230    1.021019   -0.952559
C     -1.172872    0.422335   -1.392527
O     -2.203061    1.368704   -1.399219
O     -3.315682    0.663247   -1.381714
H      2.680222    1.077349    2.944363
H      1.327408   -2.556422    1.026697
H     -0.521870   -2.079166   -0.398253
H     -1.118952    0.624621    0.852443
H      1.041481    0.559345   -1.435630
H      0.117708    2.098489   -0.683988
H     -1.105638   -0.326013   -2.213712
18

C      3.310450    0.520207   -0.524566
C      2.319242   -0.626851   -0.675245
C      0.962217   -0.181061   -0.342596
C     -0.153686    0.184570   -0.069194
C     -1.511325    0.630387    0.264053
C     -2.609309   -0.072459   -0.521602
C     -2.356228   -0.441315    0.931868
O     -3.342159    0.066405    1.784706
O     -2.801790    0.040462    2.986064
H      4.330798    0.164426   -0.780033
H      3.043726    1.354324   -1.208819
H      3.315947    0.891622    0.522876
H      2.604883   -1.458100    0.003313
H      2.333462   -0.996926   -1.722073
H     -1.706100    1.683598    0.558242
H     -2.270159   -0.841997   -1.248876
H     -3.512864    0.549912   -0.696815
H     -1.957105   -1.467207    1.098706
16

C      3.436692   -0.223367   -0.670698
C      2.733109   -0.881939    0.243414
C      1.337859   -0.598368    0.442897
C      0.167820   -0.359717    0.609077
C     -1.256222   -0.068545    0.810094
C     -1.652525    1.363651    0.480444
C     -2.001876    0.236013   -0.478203
O     -3.361343   -0.091375   -0.435131
O     -3.440119   -1.295657   -0.963725
H      4.486277   -0.447371   -0.810022
H      2.978002    0.541247   -1.286395
H      3.210505   -1.642069    0.847981
H     -1.828992   -0.569774    1.619073
H     -2.504238    1.749527    1.080557
H     -0.833411    2.024359    0.121718
H     -1.471537    0.263384   -1.456792
14

C      4.337734   -0.235264    1.003366
C      3.217020   -0.100146    0.580947
C      1.904439    0.058033    0.086298
C      0.783271    0.192761   -0.335618
C     -0.581894    0.357389   -0.849845
C     -1.474636   -0.856052   -0.627914
C     -1.650853    0.388612    0.228860
O     -2.754921    1.167530   -0.135495
O     -3.735896    0.759995    0.644201
H      5.321807   -0.353930    1.374291
H     -0.770416    0.940714   -1.776207
H     -1.017919   -1.709969   -0.082080
H     -2.258134   -0.998268   -1.402574
H     -1.319604    0.358726    1.291771
22

C     -0.300212   -2.307147   -0.379052
C     -0.235317   -1.130534   -1.366249
C      0.868675   -0.069161   -1.232440
C      1.941964   -0.249713   -0.147931
C     -0.581604    0.277985   -0.859795
C     -1.001870    0.459900    0.613426
C     -0.665758    1.870119    1.093499
O     -1.101259    2.025804    2.417923
O     -0.777245    3.257751    2.760780
H      0.047444   -3.223016   -0.899991
H      0.323113   -2.187991    0.526233
H     -1.354299   -2.466362   -0.070190
H     -0.582746   -1.318024   -2.404807
H      1.205721    0.327274   -2.213943
H      2.625709    0.623401   -0.183078
H      1.558055   -0.319302    0.884718
H      2.537428   -1.159226   -0.371801
H     -1.101221    0.907245   -1.614291
H     -2.103180    0.322719    0.666245
H     -0.563141   -0.277656    1.310449
H     -1.175753    2.611114    0.435832
H      0.435495    2.024823    1.034463
22

C     -0.644893    1.711252    0.650027
C     -0.815255    1.013582   -0.707204
C     -1.459140   -0.384264   -0.756253
C     -1.876431   -1.093213    0.540637
C      0.030729   -0.208820   -1.103396
C      1.186167   -0.751908   -0.213829
C      2.381566    0.205041   -0.279669
O      0.820648   -0.984490    1.124744
O      1.677880   -1.864844    1.608714
H     -0.096715    2.662277    0.488273
H     -1.646618    1.961087    1.057359
H     -0.087402    1.140748    1.409216
H     -1.125914    1.656679   -1.558339
H     -2.090850   -0.570766   -1.651272
H     -1.577127   -0.573347    1.469201
H     -2.983651   -1.163962    0.557889
H     -1.474194   -2.127732    0.544127
H      0.227920   -0.242630   -2.197078
H      1.492445   -1.711633   -0.694286
H      3.253169   -0.233842    0.250112
H      2.133647    1.177609    0.193566
H      2.674019    0.383176   -1.336659
22

C      2.530636   -0.226850    0.825538
C      1.307482   -0.857064    0.169866
C      0.438558    0.229930   -0.492462
C     -0.926827   -0.189515   -1.066540
C     -1.345664   -1.662608   -0.943930
C     -0.857026    0.653927    0.212918
C     -1.328508    2.103691    0.061754
O     -1.218391   -0.027700    1.387312
O     -0.536423    0.547024    2.358617
H      3.144367    0.304769    0.067242
H      2.217855    0.492129    1.612282
H      3.152744   -1.018827    1.293348
H      1.651089   -1.563867   -0.615265
H      0.763462   -1.439968    0.940487
H      0.945002    1.012975   -1.097889
H     -1.198999    0.347323   -2.000978
H     -1.222010   -2.086484    0.072149
H     -0.752392   -2.270104   -1.658476
H     -2.417065   -1.750930   -1.218513
H     -0.881939    2.727657    0.863418
H     -1.031648    2.531843   -0.919725
H     -2.434305    2.142650    0.148847
22

C      2.565456    0.800685    0.173649
C      1.473341   -0.261975    0.209017
C      0.512398   -0.072874   -0.983138
C     -0.753927   -0.939435   -1.070146
C     -1.090080   -1.946760    0.040846
C     -0.870187    0.563582   -0.769543
C     -1.258601    1.047851    0.638770
O     -2.581002    1.513680    0.601182
O     -2.832845    1.987627    1.806539
H      3.261340    0.649616    1.025803
H      2.116555    1.813685    0.255060
H      3.143515    0.730624   -0.772572
H      0.983847   -0.206124    1.198887
H      1.949716   -1.261730    0.121537
H      0.965124    0.116527   -1.980653
H     -1.076235   -1.198021   -2.101463
H     -0.925178   -2.970962   -0.352723
H     -0.481709   -1.848990    0.958079
H     -2.163186   -1.851714    0.308080
H     -1.188972    1.191208   -1.629535
H     -0.575085    1.884086    0.909045
H     -1.174283    0.259413    1.413278
22

C     -1.572125   -1.210702    1.153633
C     -0.632948   -0.018492    0.939830
C     -1.048915    1.066227   -0.062575
C     -2.388413    0.902901   -0.789914
C      0.035277    0.053099   -0.434673
C      1.462179    0.615575   -0.436819
C      2.477343   -0.506580   -0.237093
O      3.773157    0.029854   -0.264922
O      4.588935   -0.990970   -0.084252
H     -1.858509   -1.715637    0.207754
H     -1.060015   -1.957673    1.794740
H     -2.488747   -0.869060    1.677807
H     -0.043209    0.355938    1.804283
H     -0.711199    2.090455    0.206191
H     -2.493885   -0.079639   -1.294936
H     -3.219637    1.032809   -0.066109
H     -2.472548    1.692801   -1.564595
H     -0.243555   -0.722472   -1.181108
H      1.645491    1.103187   -1.418268
H      1.604545    1.381870    0.357790
H      2.288660   -0.996751    0.745637
H      2.358117   -1.256742   -1.052401
22

C     -1.575681    1.646715   -0.316348
C     -0.580629    0.576959   -0.779758
C     -0.853773   -0.883480   -0.400913
C     -2.110236   -1.196420    0.419230
C      0.233313   -0.092071    0.331057
C      1.679596   -0.455813   -0.052525
C      2.568038    0.777731    0.092626
O      2.160939   -1.455964    0.812342
O      1.676356   -2.601411    0.369742
H     -1.157066    2.647667   -0.548823
H     -2.529480    1.528495   -0.871265
H     -1.780135    1.609761    0.773774
H     -0.076829    0.708527   -1.761694
H     -0.518319   -1.620524   -1.161969
H     -3.011296   -1.025110   -0.205609
H     -2.187671   -0.591530    1.346425
H     -2.086678   -2.265990    0.713608
H      0.012740    0.222110    1.374758
H      1.752113   -0.786826   -1.117339
H      2.546419    1.152281    1.138775
H      2.222674    1.584892   -0.588308
H      3.615607    0.520000   -0.171906
22

C      2.572859    0.014930    1.117338
C      1.726543   -0.605170    0.011584
C      0.231555   -0.388401    0.291058
C     -0.665393   -0.702174   -0.912173
C     -1.977872   -1.422280   -0.581227
C     -0.491809    0.749099   -0.445402
C     -1.684732    1.438271    0.236366
O      0.253664    1.509853   -1.361137
O      0.897086    2.409045   -0.642807
H      3.648709   -0.158396    0.904184
H      2.393659    1.108805    1.176666
H      2.325758   -0.448186    2.096494
H      2.039838   -0.185703   -0.968626
H      1.923392   -1.698290   -0.014272
H     -0.175636   -0.685331    1.282060
H     -0.149664   -0.957981   -1.863855
H     -1.861960   -2.501045   -0.813689
H     -2.791645   -1.012954   -1.215094
H     -2.268787   -1.333949    0.486031
H     -1.386821    2.448287    0.585764
H     -2.042564    0.872761    1.121304
H     -2.516181    1.548810   -0.490568
22

C      2.649195    1.116536    0.411522
C      2.016184   -0.190390   -0.050873
C      0.537805   -0.240729    0.353067
C     -0.325012   -1.172101   -0.501348
C     -1.448020   -1.906218    0.240325
C     -0.436542    0.349877   -0.667855
C     -1.643096    1.081782   -0.066006
O     -2.753009    0.899961   -0.903612
O     -3.737311    1.583278   -0.351758
H      3.722660    1.131404    0.128038
H      2.570933    1.213535    1.515513
H      2.141426    1.979948   -0.069034
H      2.544383   -1.039282    0.433009
H      2.149743   -0.287102   -1.151248
H      0.265682   -0.154376    1.427794
H      0.175029   -1.686324   -1.350366
H     -1.170437   -2.976168    0.336884
H     -1.627170   -1.512167    1.262078
H     -2.386324   -1.842254   -0.348728
H      0.014055    0.751812   -1.601171
H     -1.384851    2.162945   -0.011845
H     -1.875324    0.736035    0.965616
22

C     -1.828318   -1.416380   -0.894622
C     -1.537305   -0.039235   -0.287390
C     -0.084184    0.456402   -0.276316
C      1.006545   -0.458244   -0.864529
C      2.398073    0.045031   -0.484376
O      2.629184    1.300948   -1.067128
O      3.838320    1.659559   -0.680602
C     -0.733819   -0.043721    1.014309
C     -1.108143    1.055030    2.008033
H     -1.595993   -1.400532   -1.979792
H     -1.259261   -2.235617   -0.408002
H     -2.908582   -1.638573   -0.772775
H     -2.292660    0.766702   -0.411389
H      0.015319    1.557620   -0.394262
H      0.912514   -1.505529   -0.507211
H      0.911422   -0.465278   -1.971581
H      3.151064   -0.687422   -0.854260
H      2.473697    0.109852    0.625548
H     -0.390762   -1.027885    1.400467
H     -0.228104    1.284810    2.643836
H     -1.931752    0.692510    2.657359
H     -1.437255    1.989952    1.504685
22

C     -0.885684    1.801664   -0.855333
C     -1.082415    0.597516    0.073123
C      0.099208   -0.343862    0.359704
C      1.476951   -0.079395   -0.286384
C      2.273501    0.880291    0.595628
O      2.192202   -1.289227   -0.369673
O      1.761966   -1.910453   -1.452191
C     -1.002323   -0.764730   -0.615575
C     -1.971161   -1.817517   -0.078005
H     -0.441095    1.536168   -1.836378
H     -1.877032    2.258643   -1.054414
H     -0.253272    2.562268   -0.355031
H     -1.809518    0.689643    0.908603
H      0.072762   -0.841276    1.353989
H      1.395783    0.389980   -1.292903
H      2.422360    0.445198    1.607452
H      3.269230    1.069215    0.140977
H      1.746637    1.851212    0.697513
H     -0.740974   -0.772191   -1.695972
H     -1.549684   -2.827155   -0.263532
H     -2.937506   -1.730576   -0.616475
H     -2.159935   -1.705416    1.011727
22

C      2.489642    0.477063    0.501263
C      1.449464   -0.124421   -0.441763
O      1.156054    0.811911   -1.456274
O      1.173936    0.161153   -2.605367
C      0.203960   -0.566283    0.369732
C     -1.113501   -0.669579   -0.401343
C     -1.997883   -1.855782   -0.016844
C     -0.956034    0.392938    0.691588
C     -0.916013    1.843395    0.196692
H      2.775077   -0.261179    1.281244
H      2.096058    1.387815    0.997562
H      3.401224    0.751010   -0.071208
H      1.910166   -1.055313   -0.854225
H      0.361802   -1.360949    1.131562
H     -1.127593   -0.314351   -1.452580
H     -3.055489   -1.609710   -0.245725
H     -1.700328   -2.740228   -0.617390
H     -1.918867   -2.114941    1.061256
H     -1.458846    0.185881    1.661102
H     -0.000157    2.349946    0.560651
H     -0.982961    1.929010   -0.907575
H     -1.789712    2.382614    0.617643
22

C      2.413596    0.388228    0.851785
C      1.391580   -0.621549    0.338622
C      0.268431    0.080978   -0.452763
O      0.655553    0.952739   -1.484269
O      1.060114    0.176459   -2.470295
C     -1.111553   -0.566416   -0.641658
C     -1.309486   -1.968313   -0.057558
C     -0.926474    0.565365    0.376586
C     -1.552532    1.902792   -0.027695
H      2.900762    0.913533    0.003066
H      1.919000    1.133898    1.510210
H      3.196657   -0.139189    1.436288
H      1.902005   -1.348886   -0.327764
H      0.993839   -1.181801    1.210278
H     -1.613817   -0.314127   -1.600838
H     -1.149506   -2.006400    1.040150
H     -2.350636   -2.295185   -0.258340
H     -0.617630   -2.679359   -0.555413
H     -0.927717    0.280477    1.450952
H     -2.571433    1.970326    0.406509
H     -0.937272    2.730934    0.381208
H     -1.633482    2.025498   -1.129062
22

C      2.777764   -0.289156    0.086755
C      1.430043    0.015449    0.729637
C      0.301478   -0.689194   -0.042910
C     -0.506174    0.201870   -0.987548
C     -0.969953   -0.482977   -2.272340
C     -1.152127   -0.326602    0.294597
C     -1.407067    0.714783    1.393063
O     -2.783488    0.975763    1.454620
O     -2.945130    1.830753    2.446342
H      3.585460    0.218231    0.655309
H      2.793758    0.078675   -0.961511
H      2.971195   -1.383168    0.094587
H      1.302681    1.118135    0.757819
H      1.438091   -0.361559    1.774473
H      0.440576   -1.749881   -0.347149
H     -0.236844    1.279769   -1.016777
H     -0.167926   -0.405016   -3.035322
H     -1.211604   -1.557104   -2.118669
H     -1.875220    0.033677   -2.653028
H     -1.864297   -1.173833    0.188218
H     -0.860132    1.664293    1.198971
H     -1.061086    0.287092    2.360865
22

C      2.615630    0.763818    0.022373
C      1.646108   -0.400647   -0.140301
C      0.253312    0.119160   -0.536464
C     -0.932585   -0.857500   -0.479943
C     -0.659247   -2.300613   -0.040486
C     -0.763511    0.211083    0.604223
C     -1.733586    1.403977    0.555202
O     -2.105531    1.742646   -0.757422
O     -2.926508    2.769074   -0.645648
H      3.618984    0.377780    0.300449
H      2.261615    1.447630    0.823302
H      2.703884    1.329060   -0.930026
H      1.632187   -0.974846    0.810065
H      2.019928   -1.069097   -0.944857
H      0.179217    0.872441   -1.350235
H     -1.705145   -0.682599   -1.258512
H     -0.010631   -2.800320   -0.789764
H     -0.185011   -2.369027    0.960544
H     -1.623468   -2.847735    0.005858
H     -0.416757   -0.136901    1.601302
H     -1.232714    2.269800    1.043251
H     -2.636172    1.132814    1.147088
20

C     -1.018702    0.280370   -1.438637
C     -1.124848   -0.779769   -0.329614
C     -1.199585   -0.302671    1.126109
C     -1.152674    1.207972    1.408638
C      0.061016   -1.018608    0.619649
C      1.309200   -0.204584    0.413157
C      2.131080   -0.463012   -0.600472
O      3.307752    0.263914   -0.743901
O      4.137597    0.011433   -1.763474
H     -0.809937   -0.233100   -2.399784
H     -1.990589    0.808068   -1.531018
H     -0.220687    1.031132   -1.281463
H     -1.749309   -1.675636   -0.533410
H     -1.855628   -0.925668    1.770700
H     -0.906829    1.361856    2.479607
H     -0.410794    1.766445    0.806760
H     -2.156041    1.641043    1.216211
H      0.172472   -2.072347    0.952511
H      1.589149    0.540554    1.147330
H      1.887357   -1.237392   -1.318898
20

C      1.909026    1.319154    0.530700
C      1.470190    0.379207   -0.304557
O      2.308569   -0.699695   -0.592433
O      2.035376   -1.548355   -1.592517
C      0.147356    0.544251   -1.021125
C     -1.144025    0.738586   -0.206172
C     -1.102253    0.743790    1.331052
C     -0.889367   -0.590320   -0.926656
C     -0.619392   -1.828575   -0.054898
H      2.873459    1.215753    1.011118
H      1.322285    2.206346    0.732466
H      0.158944    1.067153   -2.000678
H     -1.913294    1.370690   -0.698845
H     -0.242251    0.199214    1.765629
H     -1.055982    1.794818    1.683462
H     -2.037895    0.290597    1.719225
H     -1.523279   -0.726755   -1.828682
H     -1.545558   -2.097290    0.494456
H     -0.355090   -2.679163   -0.716312
H      0.203180   -1.699405    0.674767
20

C      2.455051    0.089684    0.787909
C      1.501110    0.637668    0.032016
C      0.800921   -0.167032   -1.030723
C     -0.239482   -1.221431   -0.604753
C     -0.576852   -1.438290    0.878695
C     -0.693374    0.080182   -1.283396
C     -1.484054    1.162765   -0.505825
O     -1.082435    1.329564    0.827788
O     -1.855831    2.276525    1.323142
H      2.703957   -0.963140    0.693701
H      2.990648    0.695785    1.511176
H      1.315015    1.704246    0.109398
H      1.386963   -0.450261   -1.930802
H     -0.313650   -2.104534   -1.274943
H     -0.275490   -2.468645    1.159261
H     -0.054013   -0.751112    1.570154
H     -1.673373   -1.353008    1.028913
H     -0.985363   -0.058512   -2.346515
H     -2.559240    0.877191   -0.540158
H     -1.360506    2.122354   -1.055944
20

C     -1.170530    2.129274    0.333277
C     -0.597785    0.716359    0.440262
C     -0.011707    0.158550   -0.858863
C      1.191609   -0.718877   -0.661051
C      2.355162   -0.206243   -0.269922
O      3.465711   -1.031164   -0.129111
O      4.639360   -0.522402    0.265417
C     -1.363271   -0.350138   -0.339083
C     -1.414772   -1.725682    0.335510
H     -0.356155    2.864651    0.499075
H     -1.942019    2.269115    1.118533
H     -1.632173    2.327112   -0.658465
H     -0.109071    0.398697    1.387657
H     -0.044007    0.838585   -1.737191
H      1.125947   -1.773358   -0.899237
H      2.443284    0.853431   -0.058686
H     -2.245945   -0.005911   -0.919948
H     -0.565651   -1.899403    1.030598
H     -1.410124   -2.515390   -0.444131
H     -2.357863   -1.807205    0.914453
20

C      2.503503    0.315906    0.624001
C      1.641700   -0.163531   -0.270381
O      2.020931   -0.198715   -1.614230
O      1.281148   -0.830751   -2.535265
C      0.316888   -0.729997    0.183107
C     -0.697728    0.224882    0.836141
C     -0.357346    1.714463    0.962919
C     -0.904016   -0.240586   -0.601119
C     -2.008307   -1.280283   -0.789752
H      3.464265    0.699845    0.305977
H      2.264872    0.323149    1.680259
H      0.283559   -1.781321    0.541166
H     -1.361652   -0.236007    1.598944
H      0.222812    1.879478    1.894077
H      0.225666    2.101799    0.100329
H     -1.301093    2.294121    1.031355
H     -0.729173    0.515520   -1.397617
H     -2.980052   -0.759722   -0.916837
H     -1.798154   -1.870744   -1.705505
H     -2.087824   -1.977505    0.072433
20

C      2.464085   -0.901620    0.430705
C      1.727641    0.158829    0.091747
C      0.386924   -0.000089   -0.578670
O      0.385621   -0.235759   -1.962463
O      0.632519   -1.523132   -2.103747
C     -0.846882   -0.484261    0.195774
C     -0.647416   -0.864951    1.665449
C     -0.674434    1.004849   -0.113614
C     -1.632974    1.551291   -1.175808
H      3.435327   -0.762453    0.893939
H      2.104023   -1.910651    0.255000
H      2.120497    1.156348    0.264479
H     -1.599070   -1.039990   -0.404937
H      0.040500   -0.175768    2.200156
H     -0.239749   -1.895387    1.723232
H     -1.630414   -0.844447    2.179713
H     -0.399933    1.658358    0.743505
H     -1.135506    2.377924   -1.724136
H     -1.953370    0.777959   -1.906599
H     -2.537387    1.952950   -0.673728
20

C      2.623485    0.862855   -0.344738
C      1.635704    0.105720   -0.825114
C      0.735893   -0.662888    0.104025
C     -0.662252   -0.934798   -0.451629
C     -1.275425   -2.269506   -0.029522
C     -0.480122    0.074424    0.681209
C     -0.696470    1.541621    0.285953
O     -2.018575    1.899869    0.585390
O     -2.126084    3.176900    0.272175
H      2.787194    0.951562    0.725115
H      3.273848    1.403273   -1.024687
H      1.500138    0.025500   -1.899818
H      1.174700   -1.450453    0.754022
H     -0.894790   -0.524829   -1.458939
H     -2.381649   -2.186514   -0.058341
H     -0.967932   -2.573909    0.994504
H     -0.958726   -3.057093   -0.744230
H     -0.780159   -0.256351    1.699212
H     -0.497830    1.711414   -0.797142
H      0.009052    2.163203    0.881647
20

C      2.724844    0.361138    0.422327
C      1.891034   -0.415573   -0.272470
C      0.580030    0.118573   -0.783534
C     -0.658877   -0.777679   -0.653097
C     -0.492282   -2.166627   -0.026563
C     -0.454323    0.387783    0.312345
C     -1.352843    1.601380    0.066439
O     -2.548834    1.432767    0.778470
O     -3.255868    2.524648    0.558938
H      3.679552   -0.030309    0.758007
H      2.461707    1.387360    0.660981
H      2.192990   -1.427688   -0.523819
H      0.584635    0.834218   -1.633676
H     -1.422334   -0.637853   -1.448424
H     -1.490084   -2.547006    0.275069
H      0.162124   -2.161310    0.871191
H     -0.064184   -2.858783   -0.780972
H     -0.151818    0.137969    1.353448
H     -1.570673    1.733079   -1.019108
H     -0.814796    2.503913    0.433542
20

C      3.013746    0.165308    0.285386
C      2.066183   -0.644493   -0.190671
C      0.629676   -0.461266    0.204022
C     -0.371955   -0.791215   -0.898617
C     -1.669054   -1.438303   -0.399826
C     -0.078917    0.675115   -0.545681
C     -1.179450    1.469166    0.187749
O     -1.161794    1.230914    1.571599
O     -2.144786    1.952559    2.074706
H      4.051054    0.010544    0.007051
H      2.762465    0.985438    0.951481
H      2.345270   -1.468777   -0.840543
H      0.323579   -0.682867    1.248350
H      0.055684   -1.135755   -1.865359
H     -1.553802   -2.541558   -0.428799
H     -1.930220   -1.146215    0.638950
H     -2.502489   -1.155075   -1.075501
H      0.508023    1.200674   -1.330654
H     -2.175505    1.226396   -0.245529
H     -0.987707    2.549410    0.000978
18

C     -0.035788    2.514297   -1.088436
C     -0.001788    1.805451   -0.113539
C      0.042949    0.947289    1.083784
C     -0.880829   -0.279257    1.120967
C     -1.814942   -0.573442   -0.065267
C      0.629737   -0.461926    0.921078
C      1.145955   -0.913614   -0.457573
O      2.522549   -0.655168   -0.527679
O      2.920037   -1.125064   -1.694700
H     -0.065733    3.135436   -1.944590
H      0.233806    1.425088    2.067543
H     -1.229673   -0.572257    2.134174
H     -2.845292   -0.269718    0.212557
H     -1.552690   -0.042576   -1.000484
H     -1.817959   -1.665337   -0.263841
H      1.154890   -0.850134    1.820146
H      0.963469   -2.008408   -0.541420
H      0.631302   -0.410661   -1.302710
18

C      2.827463    0.478939    0.971851
C      1.653915    0.215231    0.891390
C      0.218928   -0.107150    0.794478
O     -0.409229   -0.597628    1.948844
O     -0.591662    0.453242    2.724163
C     -0.682498    0.607373   -0.218655
C     -0.036975    1.707294   -1.066926
C     -0.186112   -0.814099   -0.502675
C     -1.262516   -1.898333   -0.398301
H      3.857594    0.710692    1.042006
H     -1.743789    0.721720    0.091503
H      0.967748    1.424815   -1.447652
H      0.056497    2.630203   -0.457773
H     -0.691034    1.921904   -1.937175
H      0.601805   -0.916816   -1.281131
H     -2.074341   -1.632935    0.312520
H     -1.713450   -2.057173   -1.399693
H     -0.792344   -2.847278   -0.066774
18

C     -0.587975    2.785967   -1.304504
C     -0.198034    1.934622   -0.545125
C      0.280682    0.897644    0.382789
C     -0.709293   -0.204993    0.778144
C     -2.133689   -0.134891    0.214189
C      0.383716   -0.489031   -0.251508
C      1.539106   -1.352426    0.258915
O      2.678986   -1.088942   -0.513826
O      3.620147   -1.889976   -0.052424
H     -0.930765    3.532805   -1.971233
H      1.053833    1.160262    1.135971
H     -0.557882   -0.619930    1.797941
H     -2.708580    0.635836    0.768338
H     -2.159031    0.106603   -0.869869
H     -2.627492   -1.117641    0.361094
H      0.060920   -0.585344   -1.312091
H      1.242427   -2.419479    0.148643
H      1.752925   -1.151087    1.334569
18

C      0.540493    2.730430    1.070740
C      0.141224    1.873969    0.322029
C     -0.346974    0.831039   -0.594145
C     -1.035336   -0.334088    0.115143
C     -2.204491   -0.953293   -0.650250
C      0.335707   -0.541392   -0.527356
C      1.492265   -0.739463    0.462520
O      2.664240   -0.206106   -0.092874
O      3.619157   -0.440477    0.786616
H      0.891431    3.481600    1.728279
H     -0.758857    1.128213   -1.582107
H     -1.073263   -0.295850    1.226401
H     -3.133544   -0.397493   -0.406527
H     -2.053225   -0.927717   -1.751320
H     -2.327945   -2.009500   -0.332999
H      0.352868   -1.101809   -1.487149
H      1.613934   -1.833712    0.624808
H      1.282316   -0.264353    1.448201
18

C      0.307560    3.502475   -0.087712
C      0.103774    2.328664   -0.272041
C     -0.144447    0.899522   -0.497979
C     -0.872313    0.211025    0.655988
C     -1.837744   -0.910222    0.255000
C      0.630448   -0.015960    0.448894
C      1.090351   -1.352549   -0.149164
O      2.460670   -1.269884   -0.435030
O      2.806634   -2.458189   -0.892035
H      0.486486    4.532820    0.074408
H     -0.339279    0.534028   -1.528937
H     -1.120545    0.836731    1.541295
H     -2.878489   -0.546376    0.380095
H     -1.717197   -1.232140   -0.800247
H     -1.690422   -1.783130    0.924362
H      1.271542    0.476006    1.213518
H      0.910196   -2.148101    0.608321
H      0.532777   -1.604716   -1.078725
20

O      3.441983   -0.303849   -0.809385
O      2.810622    0.110862    0.273927
C      1.445452    0.203517   -0.062608
C      0.797961    1.189335    0.879554
C     -0.487139    1.566916    0.791693
C     -1.436531    1.046649   -0.253489
C     -1.670200   -0.462942   -0.111282
C     -0.532714   -1.299873   -0.712451
C      0.787439   -1.187309    0.064745
H      1.328381    0.597435   -1.101197
H      1.404192    1.628677    1.667425
H     -0.863386    2.290163    1.509599
H     -2.410538    1.565639   -0.122511
H     -1.065450    1.297948   -1.270678
H     -2.604652   -0.720136   -0.656030
H     -1.827964   -0.735113    0.955888
H     -0.848916   -2.365657   -0.699327
H     -0.374744   -1.022500   -1.777810
H      0.627386   -1.447835    1.134672
H      1.478818   -1.951928   -0.351642
20

O      2.665262   -0.770564    1.510062
O      1.788602    0.134734    1.116088
C      1.410773   -0.212251   -0.198064
C      0.853489    1.023875   -0.928628
C     -0.131311    1.806143   -0.097850
C     -1.306780    1.311640    0.317296
C     -1.775512   -0.082481    0.002011
C     -0.860729   -1.146426    0.622726
C      0.413251   -1.391561   -0.201066
H      2.305699   -0.534869   -0.783226
H      0.385124    0.730528   -1.893236
H      1.703460    1.696983   -1.174265
H      0.124146    2.826720    0.172501
H     -1.957373    1.950359    0.907791
H     -2.795609   -0.206602    0.425348
H     -1.857380   -0.220637   -1.097938
H     -1.425624   -2.103244    0.662076
H     -0.603543   -0.879061    1.671231
H      0.138638   -1.647251   -1.248125
H      0.925418   -2.286038    0.215269
18

O      3.379359   -0.700172    0.264750
O      2.520936    0.151497    0.796183
C      1.360964    0.116018   -0.004001
C      0.684890    1.459524    0.113339
C     -0.624688    1.760956    0.067535
C     -1.805584    0.866310    0.024273
C     -1.839602   -0.448954   -0.208414
C     -0.658321   -1.293171   -0.548800
C      0.490874   -1.069915    0.429536
H      1.638070    0.001533   -1.079891
H      1.361332    2.306057    0.158256
H     -0.868416    2.814507    0.137995
H     -2.758123    1.348241    0.209029
H     -2.802504   -0.944337   -0.162499
H     -0.969266   -2.359416   -0.499193
H     -0.347021   -1.093771   -1.597141
H      1.118615   -1.987791    0.430160
H      0.118486   -0.927114    1.468884
18

O      3.095932    0.791788   -0.856938
O      1.954665    0.206639   -1.171960
C      1.399676   -0.277967    0.029823
C      0.510363   -1.462420   -0.309530
C     -0.838835   -1.517506   -0.331960
C     -1.786190   -0.468847    0.189820
C     -1.478588    0.903600   -0.334569
C     -0.343356    1.535668   -0.018174
C      0.724376    0.869774    0.804542
H      2.201340   -0.692026    0.687051
H      1.033798   -2.335991   -0.688853
H     -1.291569   -2.435811   -0.695996
H     -2.819689   -0.741872   -0.112692
H     -1.764727   -0.466651    1.300129
H     -2.217638    1.414332   -0.944802
H     -0.181329    2.548137   -0.376059
H      1.492304    1.629918    1.063924
H      0.309464    0.499235    1.766242
