13

C      1.696603   -0.081174    0.293718
C      0.698329   -0.322468   -0.834491
C     -0.711209   -0.660183   -0.336824
C     -1.424508    0.550876    0.261729
H      1.447431    0.849298    0.844799
H      1.700934   -0.941209    0.995933
H      2.713043    0.026572   -0.138235
H      0.682286    0.537564   -1.538650
H     -1.303514   -1.028942   -1.201021
H     -0.665340   -1.477848    0.414460
H     -1.450607    1.386449   -0.469727
H     -2.468431    0.274083    0.519672
H     -0.915018    0.886983    1.188637
11

C      1.389398    0.002442    0.195580
C     -0.015252   -0.481608   -0.154325
C     -1.065545   -0.132639    0.886430
C     -1.023305    0.614373   -0.439963
H      1.949482    0.205524   -0.740761
H      1.375262    0.926921    0.813517
H      1.917823   -0.792970    0.760959
H     -0.165037   -1.439328   -0.697568
H     -1.877924   -0.890318    0.869105
H     -0.651530    1.656822   -0.347728
H     -1.833370    0.330782   -1.145246
16

C     -1.482688    1.448609    0.132873
C     -0.569689    0.316799   -0.340870
C     -1.270311   -1.028151   -0.111634
C      0.792927    0.394177    0.381038
C      1.834258   -0.552397   -0.216815
H     -1.647549    1.398508    1.230912
H     -1.058254    2.438661   -0.138771
H     -0.412949    0.449169   -1.434126
H     -1.379977   -1.234889    0.974738
H     -2.279819   -1.016268   -0.576040
H     -0.696640   -1.853077   -0.582237
H      0.668685    0.166800    1.462628
H      1.190898    1.429536    0.298076
H      2.820700   -0.361367    0.255977
H      1.929410   -0.385601   -1.310809
H      1.560997   -1.610507   -0.024939
14

C     -0.269282    1.749030    0.195349
C     -0.062234    0.247165    0.377092
C     -1.402589   -0.491403    0.372908
C      0.819488   -0.274642   -0.728830
C      1.965571   -0.915315   -0.479049
H     -0.795938    1.971553   -0.758025
H     -0.843789    2.171951    1.046969
H      0.420770    0.087678    1.366934
H     -1.237463   -1.579309    0.527348
H     -1.932410   -0.342489   -0.592960
H     -2.047314   -0.117739    1.196947
H      0.505249   -0.143992   -1.760991
H      2.569292   -1.285573   -1.301227
H      2.310647   -1.076915    0.537534
12

C      2.298298   -0.586822   -0.105744
C      1.134415   -0.361291    0.114429
C     -0.284953   -0.086208    0.384003
C     -1.162763   -1.124325   -0.309613
C     -0.650003    1.321396   -0.085908
H      3.319727   -0.784725   -0.299138
H     -0.455744   -0.152412    1.479795
H     -0.964223   -2.140407    0.094123
H     -1.001734   -1.119290   -1.409733
H     -0.481165    1.429022   -1.179641
H     -1.719092    1.529669    0.133617
H     -0.032764    2.075392    0.448587
14

C     -1.719796   -0.220863   -0.237715
C     -0.375379   -0.294560    0.486052
C      0.649664   -1.110405   -0.291106
C      1.501159    0.139919   -0.466216
C      0.482415    0.955051    0.315652
H     -2.217435   -1.212697   -0.199697
H     -1.588387    0.074064   -1.301628
H     -2.372549    0.523523    0.264819
H     -0.470118   -0.613249    1.548179
H      1.159071   -1.832929    0.384210
H      1.564562    0.447482   -1.532113
H      2.484858    0.069711    0.048055
H      0.889615    1.322222    1.283053
H      0.012320    1.752729   -0.301545
14

C      1.523065   -0.645893   -0.129667
C      0.243964   -0.078437    0.492594
C     -1.032591   -0.736192   -0.021106
C     -1.481586    0.592162   -0.615316
C     -0.199822    1.246943   -0.117770
H      1.691671   -1.677775    0.243761
H      1.455267   -0.671525   -1.238946
H      2.389415   -0.016127    0.162720
H      0.285838   -0.041849    1.603966
H     -1.695504   -1.082943    0.801899
H     -0.865518   -1.499788   -0.811830
H     -2.359334    0.987923   -0.057862
H     -0.388740    2.028950    0.650216
H      0.433874    1.594552   -0.962658
14

C      1.242557    1.084155   -0.573549
C      0.859147    0.126477    0.548132
C      0.481939   -1.268253    0.063453
C     -0.594623   -0.338669    0.612736
C     -1.576686    0.211644   -0.427960
H      2.311164    0.942651   -0.837321
H      1.079137    2.130347   -0.241813
H      1.410225    0.151148    1.512223
H      0.487845   -1.411398   -1.039225
H      0.774789   -2.081911    0.760036
H     -0.964056   -0.593261    1.628828
H     -2.480894   -0.431332   -0.445333
H     -1.151325    0.239647   -1.453796
H     -1.879219    1.238755   -0.136280
14

C     -1.260871   -0.281744   -0.671141
C     -0.823362    0.743288    0.383425
C      0.450408    1.530908    0.076007
C      0.449426    0.473439    1.180163
C      1.237676   -0.811187    0.892576
H     -1.618036   -1.201449   -0.162927
H     -2.102677    0.144054   -1.255399
H     -0.455408   -0.551558   -1.384871
H     -1.600421    1.311175    0.937067
H      0.953456    1.175537   -0.848238
H      0.439372    0.878896    2.213752
H      0.663594   -1.685100    1.264630
H      2.202235   -0.768323    1.439420
H      1.464610   -0.957936   -0.183476
14

C      1.839367    1.094922    0.275894
C      0.669508    0.412605   -0.431013
C      0.468090   -1.055182   -0.069326
C     -0.485375    0.003754    0.474919
C     -1.866319    0.024115   -0.180135
H      2.774898    0.916937   -0.293807
H      1.972708    0.750095    1.324286
H      0.425857    0.681666   -1.481230
H      0.075428   -1.677432   -0.901895
H      1.169384   -1.466441    0.688101
H     -0.385856    0.215856    1.561384
H     -2.517575   -0.722689    0.319578
H     -1.825355   -0.208984   -1.266325
H     -2.314760    1.030778   -0.050300
14

C     -1.930203   -0.171513   -0.253035
C     -0.612355    0.449400    0.201264
C     -0.236546    0.099693    1.635949
C      0.509816   -0.540139    0.466881
C      1.923491   -0.010168    0.221796
H     -2.763549    0.515845    0.001336
H     -1.906959   -0.310808   -1.353757
H     -2.121587   -1.155217    0.229075
H     -0.335755    1.474047   -0.129898
H      0.337547    0.936176    2.089575
H      0.286929   -1.616369    0.305145
H      2.630262   -0.528541    0.902467
H      2.003641    1.085622    0.390608
H      2.215270   -0.228028   -0.826420
16

C      2.260243    0.426252   -0.199305
C      1.418804   -0.812183    0.098700
C      0.007191   -0.470351    0.587397
C     -0.891731   -0.004535   -0.563936
C     -2.326880    0.207177   -0.090155
H      3.284974    0.110425   -0.485689
H      2.326027    1.077071    0.698377
H      1.826836    0.999347   -1.044009
H      1.937572   -1.424283    0.867989
H      0.052492    0.307418    1.381249
H     -0.431618   -1.388863    1.034827
H     -0.888568   -0.766721   -1.373581
H     -0.514025    0.953632   -0.979433
H     -2.952237    0.551557   -0.940666
H     -2.359154    0.977627    0.709552
H     -2.749926   -0.743570    0.298682
14

C      2.268827    1.148893   -0.432424
C      1.060089    0.811356    0.019283
C      0.661005   -0.634127    0.122985
C     -0.718765   -0.828437    0.758651
C     -1.850304   -0.423207   -0.184882
H      2.552222    2.194435   -0.497199
H      2.982055    0.389704   -0.739670
H      0.374231    1.596111    0.326119
H      0.713074   -1.130372   -0.870792
H     -0.788907   -0.246429    1.703192
H     -0.836444   -1.902969    1.013851
H     -2.827701   -0.613691    0.306302
H     -1.803163   -1.018107   -1.121793
H     -1.786220    0.656841   -0.433490
14

C      2.099867    0.560767    0.010991
C      1.104634    0.165470   -0.788244
C      0.155487   -0.928593   -0.384884
C     -0.706080   -0.512648    0.810981
C     -1.726411    0.563644    0.449903
H      2.246669    0.106133    0.986134
H      2.775635    1.346322   -0.311019
H      0.990215    0.630575   -1.762885
H     -0.496065   -1.193154   -1.245733
H      0.740992   -1.833773   -0.114813
H     -1.237390   -1.401544    1.214315
H     -2.412218    0.196255   -0.342847
H     -1.211862    1.482205    0.098169
H     -2.323473    0.818342    1.350063
12

C      2.599663    0.431963   -0.307927
C      1.652304   -0.167349    0.135400
C      0.498099   -0.897278    0.675838
C     -0.729596   -0.779296   -0.230222
C     -1.324502    0.628399   -0.218106
H      3.431053    0.958344   -0.697341
H      0.271677   -0.549675    1.706343
H     -1.499217   -1.494526    0.130101
H     -0.462672   -1.064594   -1.271222
H     -0.594455    1.363578   -0.617919
H     -2.233115    0.652010   -0.855869
H     -1.609239    0.918425    0.815702
12

C      2.404457    0.270012   -0.516427
C      1.467351   -0.046317    0.172913
C      0.325803   -0.431040    1.012847
C     -0.908228   -0.747140    0.165303
C     -1.515901    0.491915   -0.486438
H      3.226794    0.547779   -1.121828
H      0.101318    0.386116    1.730568
H      0.601761   -1.336008    1.592820
H     -0.680411   -1.521568   -0.599682
H     -1.778840    1.242452    0.288376
H     -2.440656    0.203453   -1.027818
H     -0.803447    0.940346   -1.210636
14

C      1.986215    0.093879    0.399493
C      0.626238   -0.513288    0.713006
C     -0.340727   -0.318175   -0.450332
C     -1.804409   -0.370939   -0.047217
C     -1.156282    0.961939   -0.384521
H      2.431855   -0.396961   -0.491936
H      1.882777    1.183079    0.209379
H      2.662451   -0.052699    1.267130
H      0.737740   -1.597827    0.925618
H     -0.110060   -0.709734   -1.464315
H     -2.487225   -0.750612   -0.836436
H     -2.008902   -0.509565    1.036533
H     -0.970029    1.610999    0.498337
H     -1.449641    1.369904   -1.374739
14

C     -1.732445    0.393622   -0.358941
C     -0.642061   -0.631065   -0.069918
C      0.728247   -0.090813   -0.502325
C      1.931962   -0.751220    0.158383
C      1.510114    0.655100    0.562414
H     -2.719154   -0.017330   -0.058090
H     -1.761319    0.630513   -1.444021
H     -1.544547    1.325993    0.215148
H     -0.855346   -1.557144   -0.645047
H     -0.666558   -0.886717    1.012628
H      0.898366    0.240626   -1.548667
H      1.631000   -1.477487    0.944055
H      2.180096    1.446043    0.166095
H      1.041645    0.719880    1.568287
12

C      2.049640    0.244630    0.017757
C      0.951128   -0.473071   -0.225694
C     -0.378094    0.193968   -0.416877
C     -1.015432    0.630850    0.891691
C     -1.562045   -0.572414    0.139585
H      2.001219    1.326107    0.104045
H      3.008044   -0.251057    0.132951
H      1.030656   -1.551415   -0.328864
H     -0.562553    0.860562   -1.286594
H     -1.666103    1.514314    0.717006
H     -2.525658   -0.382803   -0.379498
H     -1.330802   -1.539670    0.634493
10

C      2.416010    0.267837    0.283264
C      1.277032   -0.103160    0.146342
C     -0.107336   -0.556599   -0.019942
C     -0.974927    0.463569   -0.733360
C     -1.125870    0.244925    0.764592
H      3.415655    0.593698    0.403542
H     -0.338227   -1.624661   -0.219133
H     -1.794775   -0.053973   -1.275975
H     -2.041098   -0.316203    1.050107
H     -0.726465    1.084567    1.373145
12

C      0.124817   -1.304473   -0.499621
C      1.304649   -0.512466   -0.067185
C      0.979301    0.710437    0.310885
C     -0.479536    0.964666    0.202069
C     -1.049434   -0.332077   -0.380616
H     -0.011037   -2.167475    0.187101
H      2.319847   -0.894674   -0.048431
H      1.699599    1.437247    0.671996
H     -0.668901    1.825510   -0.474448
H     -0.903003    1.168414    1.208957
H     -1.841980   -0.747266    0.279812
H     -1.474321   -0.147842   -1.390520
19

C      2.846697   -0.326643    0.015675
C      1.435560   -0.396080   -0.554703
C      0.431839    0.359074    0.321804
C     -1.008188    0.207942   -0.207458
C     -1.493854   -1.245636   -0.105892
C     -1.956548    1.133433    0.564500
H      3.536232   -0.896526   -0.641145
H      3.190322    0.728332    0.069140
H      2.871363   -0.776527    1.030515
H      1.429198    0.013267   -1.588299
H      0.487020   -0.021078    1.365919
H      0.712289    1.435710    0.331303
H     -1.033520    0.513260   -1.277401
H     -0.852169   -1.913906   -0.717902
H     -1.472000   -1.593868    0.949201
H     -2.533328   -1.329795   -0.488862
H     -1.635330    2.191158    0.453729
H     -2.989385    1.045361    0.164669
H     -1.966198    0.872520    1.644818
19

C      2.829433   -0.108725    0.133106
C      1.423531   -0.549856   -0.258210
C      0.386769    0.481259    0.202771
C     -1.056362    0.104827   -0.185429
C     -1.567871   -1.070586    0.658145
C     -1.978683    1.315744    0.001282
H      3.084701    0.853198   -0.360641
H      2.901041    0.013795    1.235043
H      3.563628   -0.877345   -0.188279
H      1.373378   -0.668436   -1.362369
H      1.224506   -1.532684    0.216336
H      0.650159    1.472409   -0.229481
H     -1.086535   -0.184201   -1.259519
H     -1.007324   -1.998042    0.421885
H     -1.463437   -0.848620    1.742100
H     -2.638376   -1.267604    0.435272
H     -1.645634    2.156355   -0.644352
H     -3.019383    1.056249   -0.288693
H     -1.973542    1.652263    1.060643
19

C     -2.117235    0.730293   -1.211286
C     -1.099184   -0.241227   -0.611919
C     -1.761135   -1.026985    0.527019
C      0.155805    0.525774   -0.140272
C      1.314014   -0.409849    0.238774
C      2.578660    0.382151    0.559439
H     -2.417072    1.504186   -0.471990
H     -1.709404    1.218273   -2.122156
H     -0.811016   -0.958343   -1.411873
H     -1.099944   -1.848113    0.872451
H     -1.990892   -0.358959    1.384854
H     -2.707335   -1.489106    0.171916
H      0.498830    1.188749   -0.965751
H     -0.100190    1.172602    0.728173
H      1.043272   -1.009994    1.132826
H      1.529718   -1.103699   -0.602623
H      3.393828   -0.317085    0.841612
H      2.394908    1.074896    1.408253
H      2.904374    0.966436   -0.327446
17

C     -1.598262   -1.421730   -0.632760
C     -0.614714   -0.270526   -0.419585
C     -1.358279    0.975158    0.083122
C      0.490844   -0.709880    0.560797
C      1.591507    0.311452    0.679303
C      2.447645    0.543174   -0.320076
H     -2.123222   -1.682162    0.311650
H     -2.341785   -1.165490   -1.417442
H     -0.156695   -0.036419   -1.405516
H     -1.818525    0.783779    1.076335
H     -2.158451    1.258139   -0.633768
H     -0.660218    1.834295    0.170300
H      0.933274   -1.673859    0.224797
H      0.049810   -0.879758    1.567513
H      1.708929    0.853237    1.613151
H      2.370272    0.003796   -1.259169
H      3.237869    1.276795   -0.198649
15

C      2.694318   -1.594993   -0.052677
C      1.881054   -0.755920    0.243875
C      0.889815    0.266973    0.605825
C     -0.363553    0.171291   -0.281638
C     -1.091893   -1.157453   -0.057579
C     -1.308148    1.346288   -0.005086
H      3.407989   -2.331694   -0.313164
H      1.364748    1.263552    0.480047
H      0.617420    0.144397    1.676386
H     -0.053550    0.223735   -1.349272
H     -1.940200   -1.266272   -0.766471
H     -1.461179   -1.242391    0.987153
H     -1.641192    1.341317    1.055260
H     -0.794025    2.308493   -0.214925
H     -2.201605    1.282679   -0.662425
17

C     -1.916553   -0.736390    0.570792
C     -1.081645   -0.057930   -0.226623
C     -1.290583    1.415193   -0.448120
C      0.043943   -0.783407   -0.919748
C      1.211908   -1.099539    0.020401
C      1.964681    0.159528    0.446460
H     -1.788873   -1.802932    0.730863
H     -2.738688   -0.233439    1.071418
H     -0.510791    1.833827   -1.118419
H     -1.239844    1.951681    0.522966
H     -2.285382    1.589340   -0.909939
H      0.398451   -0.235243   -1.819473
H      1.915856   -1.773786   -0.512007
H      0.844008   -1.637393    0.920597
H      2.835637   -0.124116    1.073965
H      2.333402    0.709972   -0.445151
H      1.304473    0.824634    1.042016
17

C     -1.673416   -1.250800    0.356457
C     -1.163121   -0.047898    0.052722
C     -1.965316    1.190778    0.350571
C      0.194243    0.057120   -0.601213
C      1.301621   -0.215569    0.418381
C      2.685654   -0.014419   -0.186592
H     -1.120851   -2.160856    0.142514
H     -2.651317   -1.339029    0.820692
H     -1.413015    2.110331    0.065137
H     -2.186266    1.242277    1.437787
H     -2.921193    1.164354   -0.214197
H      0.334368    1.074502   -1.025618
H      0.262702   -0.666956   -1.442866
H      1.218357   -1.250237    0.816497
H      3.456459   -0.210808    0.587349
H      2.841486   -0.714023   -1.035267
H      2.799604    1.031233   -0.542354
17

C     -1.518501   -1.286119   -0.753775
C     -1.097447    0.176718   -0.607407
C     -1.689262    0.803933    0.659853
C      0.406813    0.311649   -0.645227
C      1.210522   -0.243345    0.276264
C      2.696762   -0.080262    0.198743
H     -1.208917   -1.889087    0.126377
H     -2.618880   -1.363817   -0.884734
H     -1.506208    0.729551   -1.481296
H     -1.358639    0.257281    1.568553
H     -2.798889    0.775427    0.614300
H     -1.372081    1.865468    0.743354
H      0.846839    0.886770   -1.456118
H      0.792349   -0.821227    1.095046
H      3.176862   -0.610855    1.047413
H      3.075745   -0.508647   -0.753131
H      2.962933    0.996562    0.251784
17

C     -1.598481    0.990063    0.635177
C     -1.064397    0.178118   -0.544737
C     -1.105919   -1.326894   -0.260224
C      0.287352    0.679966   -1.023553
C      1.479981    0.545370   -0.408425
C      1.729496   -0.206703    0.865364
H     -1.041239    0.800086    1.572810
H     -1.597360    2.076405    0.402440
H     -1.774423    0.356555   -1.382152
H     -0.687812   -1.565121    0.738507
H     -0.547885   -1.886638   -1.040974
H     -2.160130   -1.677637   -0.269349
H      0.285776    1.223530   -1.964810
H      2.343682    1.001927   -0.884020
H      1.567987   -1.291961    0.708868
H      1.094431    0.171851    1.688102
H      2.788941   -0.068916    1.166976
15

C     -1.352459    1.371711   -1.093758
C     -1.136224    0.493499    0.135545
C     -1.974000   -0.780642    0.035743
C      0.288442    0.156467    0.272639
C      1.456695   -0.119945    0.385315
C      2.873913   -0.455605    0.521426
H     -1.016663    0.858240   -2.021023
H     -0.816310    2.339001   -0.985371
H     -1.453612    1.060177    1.036887
H     -1.675899   -1.381009   -0.851415
H     -3.050730   -0.521163   -0.052727
H     -1.840011   -1.399226    0.949301
H      3.259804   -0.050137    1.479301
H      3.441560   -0.013057   -0.322835
H      2.995492   -1.558310    0.510974
19

C      1.194487    1.406983    1.168530
C      0.776960    0.029139    0.645276
C      1.701980   -0.387419   -0.508257
C     -0.740978   -0.021703    0.292497
C     -1.115117    0.792701   -0.957671
C     -1.241476   -1.467154    0.148476
H      0.584298    1.704306    2.047741
H      1.140977    2.187303    0.381114
H      0.956660   -0.681931    1.481761
H      2.754551   -0.413613   -0.153231
H      1.641523    0.332075   -1.351648
H      1.446373   -1.402370   -0.874633
H     -1.299655    0.417669    1.149276
H     -0.786391    1.846961   -0.858380
H     -0.664158    0.353380   -1.872106
H     -2.218601    0.797655   -1.086646
H     -0.977079   -2.061139    1.049056
H     -2.347865   -1.476749    0.046821
H     -0.806489   -1.956095   -0.747979
17

C      1.150269    0.955602    1.317478
C      0.759553   -0.160448    0.347136
C      1.676614   -0.158482   -0.879883
C     -0.705047   -0.068532   -0.048141
C     -1.186727    1.000938   -0.706464
C     -1.622362   -1.208032    0.311367
H      0.522919    0.915640    2.233484
H      1.068129    1.958417    0.847158
H      0.928576   -1.122856    0.878896
H      2.730205   -0.317813   -0.565251
H      1.390936   -0.981598   -1.569326
H      1.614070    0.806413   -1.426468
H     -2.233628    1.062397   -0.987429
H     -0.543311    1.832145   -0.975220
H     -1.629314   -1.342851    1.413275
H     -2.665786   -1.029330   -0.026608
H     -1.255095   -2.141609   -0.164003
17

C     -0.922364    1.385494    0.299284
C     -0.266567    0.070691   -0.153543
C     -1.237609   -0.841358   -0.914655
C      1.043293    0.267067   -0.918291
C      1.792406   -0.458183    0.193163
C      0.493429   -0.649370    0.964246
H     -1.299354    1.946144   -0.582381
H     -0.195049    2.028295    0.840919
H     -1.774703    1.169699    0.977985
H     -1.630380   -0.315539   -1.810857
H     -2.090657   -1.118506   -0.259458
H     -0.730564   -1.772744   -1.248464
H      1.353563    1.335076   -0.959853
H      2.516435    0.197482    0.725037
H      2.223036   -1.419248   -0.161154
H      0.499140   -0.101331    1.932514
H      0.225941   -1.723669    1.075507
17

C      2.219653   -0.114413   -0.267721
C      0.891318   -0.853029   -0.080550
C     -0.111872   -0.713046   -1.229290
C     -0.377290   -0.013571    0.103048
C     -0.272651    1.518843    0.098301
C     -1.467448   -0.641473    0.976651
H      2.506284    0.403556    0.671036
H      2.226179    0.593789   -1.122400
H      0.902578   -1.846861    0.415729
H      0.199730   -0.053882   -2.067574
H     -0.707799   -1.632092   -1.414747
H      0.349839    1.905071   -0.734894
H     -1.286432    1.958512   -0.007924
H      0.162172    1.860833    1.060557
H     -1.466272   -1.751111    0.914113
H     -1.305509   -0.348415    2.034985
H     -2.462480   -0.272712    0.650679
17

C      1.901142    0.635208    0.593490
C      0.891419   -0.498956    0.404881
C      0.617823   -0.845016   -1.059384
C     -0.461091   -0.161918   -0.221996
C     -0.764403    1.287741   -0.619979
C     -1.639670   -1.041358    0.209377
H      2.117828    1.176935   -0.351648
H      1.517809    1.351334    1.349864
H      2.855128    0.208530    0.966704
H      0.923203   -1.368945    1.096333
H      0.431889   -1.935914   -1.160136
H     -0.913854    1.898906    0.294426
H     -1.695590    1.320905   -1.223557
H      0.046589    1.737070   -1.230527
H     -2.366005   -1.124869   -0.626008
H     -2.146724   -0.575316    1.079898
H     -1.315495   -2.064336    0.498262
17

C     -0.677561    1.519465    0.393892
C     -0.542009    0.067687   -0.058257
C     -1.756423   -0.850961    0.096453
C      0.281513   -0.133723   -1.327270
C      0.832762   -0.597546    0.022678
C      1.999125    0.234761    0.566204
H     -0.882641    1.559247    1.483959
H     -1.500283    2.016834   -0.161024
H     -1.550295   -1.878989   -0.272096
H     -2.038238   -0.911447    1.168358
H     -2.611515   -0.435035   -0.476441
H     -0.046071   -0.966515   -1.985620
H      0.745497    0.785367   -1.746642
H      0.845014   -1.699320    0.167351
H      1.954847    0.242196    1.675024
H      1.991897    1.283460    0.199835
H      2.954381   -0.235483    0.253597
17

C      1.792805    1.323382   -0.074999
C      1.326677   -0.133437   -0.058136
C      0.299927   -0.437734    1.032563
C     -0.737713   -0.763182   -0.042029
C     -1.940321    0.184949   -0.041313
C      0.287815   -0.451693   -1.132451
H      2.443132    1.523730    0.802166
H      0.933942    2.028878   -0.068686
H      2.175111   -0.852801   -0.060624
H      0.037422    0.439978    1.665272
H      0.578225   -1.334206    1.628591
H     -1.037272   -1.834817   -0.033392
H     -2.565343   -0.007038   -0.938577
H     -1.615887    1.247996   -0.049964
H     -2.555139    0.004547    0.865355
H      0.558932   -1.355991   -1.719981
H      0.017687    0.417439   -1.773795
17

C      2.079214    0.087800    0.411720
C      1.009805    0.794156   -0.427154
C     -0.221404    1.181030    0.391926
C     -1.070426    0.207927   -0.423187
C     -1.648301   -0.944405    0.403599
C      0.159398   -0.181286   -1.240642
H      2.547471    0.819391    1.102668
H      2.865177   -0.317081   -0.259280
H      1.648305   -0.746216    1.007146
H     -0.509090    2.238493    0.208885
H     -0.151039    0.929851    1.474500
H     -1.842587    0.725306   -1.035029
H     -0.859492   -1.445184    1.005416
H     -2.429463   -0.554334    1.089331
H     -2.111526   -1.691964   -0.274025
H      0.458006   -1.249003   -1.136585
H      0.075951    0.145518   -2.299289
17

C      1.691996    1.166057    0.054918
C      1.164279   -0.268495    0.071573
C      0.048891   -0.482809   -0.945994
C     -0.923077   -0.776359    0.191800
C     -2.047494    0.256218    0.270306
C      0.190432   -0.553600    1.212410
H      2.368247    1.323494    0.921258
H      0.861226    1.902506    0.107707
H      2.265652    1.340167   -0.879607
H      1.973400   -1.028761   -0.005602
H      0.239045   -1.404645   -1.538735
H     -1.297176   -1.824504    0.182793
H     -2.734750    0.123480   -0.591551
H     -1.646044    1.292477    0.252030
H     -2.622297    0.109315    1.208751
H      0.018616    0.313000    1.890062
H      0.449054   -1.487543    1.757554
17

C      2.434053    0.464636   -0.207046
C      1.175009   -0.262550    0.267927
C      0.086811    0.672051    0.795803
C     -0.832398    0.237667   -0.345941
C     -2.093996   -0.491731    0.124415
C      0.256464   -0.697289   -0.873048
H      2.992000    0.865868    0.664859
H      2.188793    1.294775   -0.904501
H      1.401634   -1.094574    0.970572
H      0.349013    1.751588    0.734136
H     -0.271110    0.368862    1.804723
H     -1.055433    1.069245   -1.050881
H     -2.627010   -0.915405   -0.752528
H     -2.768230    0.225463    0.637903
H     -1.844142   -1.316539    0.826549
H     -0.005823   -1.776797   -0.810573
H      0.614366   -0.395270   -1.882369
17

C      2.155980    0.599818   -0.260310
C      0.711202    0.801414    0.206628
C     -0.338926    0.376334   -0.819479
C     -0.836816   -0.692965    0.146659
C     -2.272269   -0.432075    0.602404
C      0.218167   -0.276131    1.169191
H      2.849277    0.786604    0.586486
H      2.387414    1.318349   -1.074427
H      2.317540   -0.433935   -0.635706
H      0.520446    1.828952    0.586201
H      0.114936   -0.098251   -1.718049
H     -0.683219   -1.727160   -0.234713
H     -2.969606   -0.615184   -0.241987
H     -2.399008    0.615806    0.951668
H     -2.530404   -1.122689    1.432542
H     -0.202796    0.156308    2.103985
H      0.958082   -1.085196    1.358583
19

C      2.693205   -0.082750    0.128920
C      1.340203   -0.652826    0.542929
C      0.170436    0.065223   -0.163966
C      0.074860    1.531631    0.296128
C     -1.147935   -0.695750    0.108900
C     -2.315582   -0.195632   -0.743273
H      2.862520   -0.234443   -0.958326
H      3.505954   -0.581262    0.697931
H      1.229801   -0.562199    1.645628
H      1.333022   -1.734682    0.285672
H      0.363707    0.050140   -1.260247
H     -0.187173    1.588228    1.374411
H      1.040077    2.056378    0.136765
H     -0.690589    2.077979   -0.291983
H     -1.004016   -1.773455   -0.125173
H     -1.419569   -0.619587    1.184700
H     -3.184412   -0.874760   -0.612573
H     -2.036867   -0.183481   -1.818355
H     -2.627644    0.821250   -0.428088
19

C      2.490915   -0.009213   -0.408450
C      1.059234    0.517101   -0.454253
C      0.149614   -0.094666    0.627949
C     -0.254042   -1.537917    0.287039
C     -1.076639    0.806624    0.892348
C     -2.025359    0.956518   -0.300821
H      2.518970   -1.089821   -0.659466
H      2.929152    0.151309    0.598897
H      3.104563    0.542198   -1.150606
H      0.634343    0.379961   -1.472110
H      0.719804   -0.126685    1.583228
H     -0.698499   -1.600668   -0.728542
H      0.634197   -2.202607    0.322231
H     -0.989905   -1.917231    1.027655
H     -1.651329    0.396650    1.751522
H     -0.722863    1.817590    1.191638
H     -2.859927    1.633102   -0.020378
H     -1.501450    1.400896   -1.171918
H     -2.460781   -0.023141   -0.586353
17

C      2.859661   -0.657201    0.074614
C      1.654287   -0.699426   -0.498846
C      0.434354   -0.105320    0.169346
C      0.499897    1.428565    0.104033
C     -0.846522   -0.650630   -0.500009
C     -2.119130   -0.296777    0.270914
H      3.011740   -0.184875    1.040324
H      1.561244   -1.198939   -1.458769
H      0.433926   -0.419525    1.237426
H     -0.327202    1.881415    0.688271
H      1.451474    1.795737    0.543944
H      0.436219    1.779005   -0.948623
H     -0.930123   -0.268076   -1.541160
H     -0.783586   -1.760296   -0.552560
H     -2.030291   -0.607114    1.333670
H     -2.983047   -0.829016   -0.180170
H     -2.322902    0.792474    0.217596
17

C      2.606261   -0.656604   -0.149140
C      1.730328    0.298229   -0.470713
C      0.365328    0.393537    0.159996
C     -0.213978    1.782031   -0.136000
C     -0.547076   -0.734337   -0.371789
C     -1.875578   -0.825644    0.379810
H      2.365641   -1.409568    0.595158
H      3.575540   -0.680175   -0.634325
H      0.478997    0.291795    1.262705
H     -1.157830    1.940222    0.425387
H      0.499349    2.571182    0.186318
H     -0.412468    1.903353   -1.222870
H     -0.747971   -0.587259   -1.455846
H     -0.030413   -1.712262   -0.256471
H     -1.699322   -0.903312    1.473703
H     -2.510394    0.059215    0.167610
H     -2.426414   -1.730404    0.046468
17

C      2.341078   -0.668885    0.098251
C      1.597781    0.099021   -0.706146
C      0.177446    0.485349   -0.375569
C      0.110430    1.372923    0.872759
C     -0.749517   -0.741252   -0.301022
C     -2.217457   -0.348039   -0.441277
H      1.944667   -1.049325    1.034356
H      3.358282   -0.922098   -0.181971
H      2.025004    0.459753   -1.636111
H      0.351327    0.788928    1.786403
H      0.832076    2.212119    0.779807
H     -0.902563    1.811263    0.978730
H     -0.504304   -1.436869   -1.133538
H     -0.598875   -1.286366    0.656220
H     -2.555761    0.231406    0.442562
H     -2.369035    0.256496   -1.360921
H     -2.840578   -1.264424   -0.512534
17

C      0.195970    2.005072   -0.592259
C     -0.122308    0.778985    0.265360
C      1.146746    0.213200    0.863711
C      2.142717   -0.285838    0.121736
C     -0.914826   -0.270087   -0.542871
C     -1.399922   -1.428201    0.329406
H     -0.737949    2.529549   -0.886897
H      0.765476    1.726127   -1.504441
H     -0.763629    1.129220    1.104060
H      1.250885    0.207808    1.944873
H      3.030331   -0.682387    0.603678
H      2.085106   -0.304113   -0.961626
H     -0.295613   -0.672120   -1.373772
H     -1.806890    0.216187   -0.995190
H     -0.538424   -1.991976    0.745232
H     -2.010296   -2.123790   -0.284224
H     -2.027374   -1.047634    1.163223
17

C      2.341623   -0.679859    0.008106
C      1.473930   -0.151585    0.879887
C      0.079565    0.280354    0.490591
C      0.122954    1.410716   -0.547542
C     -0.730665   -0.931067   -0.003092
C     -2.237697   -0.691347   -0.007405
H      2.076112   -0.824525   -1.034108
H      3.332226   -0.972936    0.340145
H      1.786019   -0.026610    1.912856
H     -0.405021    0.679422    1.408987
H     -0.893298    1.826839   -0.708094
H      0.773597    2.235591   -0.185768
H      0.516012    1.044728   -1.519880
H     -0.390199   -1.271407   -1.005291
H     -2.755039   -1.638874   -0.264140
H     -2.510241    0.075076   -0.762185
H     -2.579877   -0.364516    0.996936
17

C     -1.888018   -0.646869    0.264058
C     -0.769787    0.070398    1.018122
C      0.352758    0.580244    0.088722
C     -0.173150    1.624557   -0.905581
C      1.038913   -0.553789   -0.641019
C      1.814272   -1.432570    0.001594
H     -2.716136   -0.894716    0.960849
H     -1.512354   -1.584574   -0.196916
H     -1.208568    0.933077    1.564744
H     -0.346234   -0.619259    1.780000
H      1.112311    1.090418    0.722543
H     -0.915993    1.176041   -1.599515
H     -0.652531    2.465649   -0.360715
H      0.667851    2.035569   -1.504307
H      0.923618   -0.652152   -1.717298
H      1.971017   -1.361585    1.073545
H      2.302030   -2.230440   -0.548827
15

C      1.088622    2.472076   -0.339499
C      0.945368    1.278709   -0.433523
C      0.770440   -0.178201   -0.548840
C      1.353148   -0.908520    0.661879
C     -0.683203   -0.570127   -0.869664
C     -1.677864   -0.214977    0.238687
H      1.213991    3.519588   -0.256719
H      0.881086   -0.558588    1.604468
H      2.445856   -0.719275    0.720225
H      1.196535   -2.002838    0.558408
H     -0.993901   -0.061608   -1.808086
H     -0.729940   -1.664031   -1.059074
H     -2.705629   -0.471133   -0.094374
H     -1.644457    0.871403    0.465133
H     -1.460053   -0.792478    1.160980
15

C      1.308730    2.259990   -0.513133
C      1.053844    1.085603   -0.414055
C      0.743224   -0.347639   -0.294467
C      1.126953   -0.847781    1.096917
C     -0.739576   -0.624422   -0.613798
C     -1.717379    0.047604    0.355973
H      1.532024    3.290734   -0.599921
H      1.363859   -0.890667   -1.039783
H      2.208263   -0.677827    1.289462
H      0.913913   -1.933915    1.191400
H     -0.917072   -1.721924   -0.594176
H     -0.963060   -0.275564   -1.646046
H     -2.758365   -0.198496    0.058228
H     -1.599480    1.151265    0.331316
H     -1.555877   -0.316958    1.392082
15

C     -0.334636    2.372755    0.986378
C     -0.349123    1.201235    0.701147
C     -0.365940   -0.228716    0.354438
C     -1.813084   -0.686390    0.161656
C      0.447693   -0.474428   -0.925315
C      1.945535   -0.252017   -0.723776
H     -0.321744    3.400910    1.236494
H      0.076290   -0.806103    1.195509
H     -2.289482   -0.140763   -0.681999
H     -2.401038   -0.502880    1.086962
H     -1.844049   -1.775910   -0.053633
H      0.289283   -1.513019   -1.290179
H      2.477548   -0.460186   -1.675295
H      2.147297    0.800059   -0.433370
H      2.335450   -0.934547    0.060982
15

C      0.838478    2.545761    0.164546
C      0.728868    1.378417   -0.116743
C      0.595206   -0.047483   -0.460926
C      1.157023   -0.921591    0.665787
C     -0.864238   -0.399481   -0.810123
C     -1.841306   -0.125335    0.332530
H      0.934438    3.570259    0.411602
H      1.211096   -0.230532   -1.368128
H      2.244403   -0.727790    0.788398
H      0.652939   -0.706011    1.631893
H      1.023651   -1.996636    0.420008
H     -0.933071   -1.470741   -1.099566
H     -1.177087    0.201654   -1.691859
H     -2.885457   -0.226575   -0.031259
H     -1.684944   -0.843917    1.163839
13

C      2.187519    0.844787    1.344771
C      1.233463    0.297790    0.849988
C      0.071445   -0.367930    0.249630
C      0.515344   -1.657856   -0.428702
C     -0.553929    0.550001   -0.766040
C     -1.818005    0.970166   -0.656499
H      3.024791    1.324834    1.778850
H     -0.646864   -0.618635    1.061113
H      0.983096   -2.345888    0.308340
H     -0.354708   -2.170793   -0.892116
H      0.037492    0.879712   -1.616525
H     -2.443321    0.663138    0.176208
H     -2.236323    1.630675   -1.409018
17

C      0.197847    1.940804    0.217455
C     -0.045596    0.754807   -0.355561
C      0.914302    0.233423   -1.388517
C      1.730524   -0.938149   -0.858515
C     -1.280347   -0.037548    0.006740
C     -1.190932   -0.593837    1.425947
H     -0.483964    2.354202    0.954443
H      1.080941    2.514860   -0.047527
H      0.371848   -0.054272   -2.314443
H      1.070345   -1.803908   -0.639469
H      2.271135   -0.640775    0.064946
H      2.474563   -1.241126   -1.623987
H     -1.406620   -0.887265   -0.698647
H     -2.179853    0.609220   -0.084391
H     -1.135606    0.231823    2.166521
H     -0.294203   -1.240730    1.531540
H     -2.094385   -1.201528    1.643465
17

C      2.158041   -0.061077    0.121166
C      0.999170    0.509684   -0.686954
C     -0.361083    0.110415   -0.110379
C     -0.796728    0.663263    1.250946
C     -0.868582   -1.273713   -0.486005
C     -1.464033   -0.036094   -1.148968
H      2.068686   -1.165371    0.194296
H      2.174967    0.378712    1.140405
H      3.112981    0.184273   -0.387952
H      1.079927    1.615988   -0.748263
H     -1.836113    0.364477    1.506740
H     -0.741457    1.771764    1.235712
H     -0.121373    0.279949    2.043381
H     -1.545380   -1.757153    0.250549
H     -0.207002   -1.863719   -1.156047
H     -2.496658    0.193004   -0.808949
H     -1.155363    0.085598   -2.209678
17

C      2.006988    0.229018    0.128613
C      0.843754   -0.633740   -0.353435
C     -0.516868   -0.004776    0.003616
C     -0.932267    1.308135   -0.666676
C     -1.024070   -0.199631    1.426656
C     -1.647981   -0.984652    0.274977
H      1.937604    0.394539    1.224725
H      2.008713    1.208848   -0.393035
H      2.965970   -0.285301   -0.092289
H      0.948338   -1.645887    0.095838
H      0.909526   -0.749882   -1.456369
H     -0.914471    1.183422   -1.769491
H     -1.953426    1.623622   -0.361256
H     -0.226079    2.115521   -0.383788
H     -0.347316   -0.858246    2.012569
H     -2.672332   -0.636352    0.025457
H     -1.386083   -2.064637    0.283888
17

C     -1.278160    1.505544    0.198536
C     -0.954489    0.169683   -0.481026
C     -1.169700   -1.038718    0.429315
C      0.301144   -1.416835    0.285895
C      0.529134   -0.211292   -0.626373
C      1.569264    0.777916   -0.081497
H     -0.844613    1.581913    1.217852
H     -0.938642    2.353958   -0.431561
H     -1.502509    0.062051   -1.443090
H     -1.436322   -0.780150    1.478115
H     -1.846004   -1.795709   -0.024779
H      0.844358   -1.365502    1.255522
H      0.438677   -2.382982   -0.247211
H      0.769305   -0.523331   -1.667337
H      1.399280    1.007338    0.991428
H      1.536417    1.719244   -0.668867
H      2.582858    0.336873   -0.184923
17

C      1.957195   -0.658865    0.155384
C      0.585165   -0.175159    0.633969
C      0.421437    1.339858    0.516579
C     -0.663764    1.147721   -0.534426
C     -0.505859   -0.367041   -0.419848
C     -1.736587   -1.067287    0.155991
H      2.733486   -0.341843    0.882548
H      1.957147   -1.767390    0.099307
H      2.209682   -0.246387   -0.845876
H      0.023283    1.778848    1.456452
H      1.313121    1.873210    0.118032
H     -0.354114    1.528454   -1.532244
H     -1.652856    1.532080   -0.199572
H     -0.156246   -0.832623   -1.369130
H     -1.498575   -2.133805    0.352699
H     -2.569731   -1.018320   -0.576292
H     -2.062786   -0.591452    1.106426
17

C      1.539128   -0.944628    0.265886
C      0.842591    0.099697   -0.618978
C      0.852512    1.511150   -0.032498
C     -0.672008    1.531836   -0.057694
C     -0.694455    0.115521   -0.628922
C     -1.417689   -0.892950    0.275180
H      1.323235   -1.964256   -0.116046
H      2.636850   -0.782914    0.227742
H      1.215454   -0.872700    1.325324
H      1.255103    0.099398   -1.651753
H      1.217575    1.529963    1.018663
H     -1.113852    1.626521    0.959283
H     -1.055852    2.284166   -0.779732
H     -1.096909    0.095572   -1.666380
H     -1.219573   -1.925940   -0.079506
H     -2.511661   -0.710590    0.224334
H     -1.100450   -0.799848    1.335098
17

C     -1.775958    1.021533   -0.705560
C     -0.631250    0.570336    0.197398
C     -0.935307   -0.732567    0.934677
C      0.187427   -1.430227    0.175571
C      0.491038   -0.132411   -0.572384
C      1.882048    0.433427   -0.272240
H     -2.637715    1.351940   -0.088341
H     -1.441841    1.864572   -1.346151
H     -0.283169    1.375953    0.882609
H     -0.724605   -0.659273    2.024053
H     -1.934090   -1.165477    0.703212
H      1.004692   -1.772188    0.848810
H     -0.193003   -2.227267   -0.500094
H      0.300370   -0.224743   -1.665737
H      2.062039    0.501822    0.822621
H      1.973491    1.447336   -0.715263
H      2.655834   -0.222764   -0.723180
17

C      1.895960   -0.685657   -0.229773
C      0.588153   -0.354824    0.495976
C      0.565078    1.038908    1.123499
C     -0.581706    1.432995    0.199934
C     -0.550051    0.049090   -0.445042
C     -1.835286   -0.755531   -0.230246
H      1.781434   -1.641965   -0.782015
H      2.171132    0.114561   -0.950609
H      2.714763   -0.798933    0.511456
H      0.307123   -1.135906    1.236781
H      1.476978    1.628817    0.879980
H     -1.509844    1.648279    0.772941
H     -0.299029    2.240517   -0.510690
H     -0.255856    0.093878   -1.518002
H     -1.682356   -1.798402   -0.579059
H     -2.660779   -0.301556   -0.817746
H     -2.125712   -0.774272    0.842614
17

C      1.902158    0.652423   -0.233868
C      0.836164   -0.390912    0.106722
C      0.020069   -0.719481   -1.141117
C     -1.439925   -0.480930   -0.798879
C     -1.430974    0.458782    0.391208
C     -0.158575    0.127940    1.151225
H      2.503791    0.889309    0.669377
H      1.431612    1.587020   -0.609296
H      2.586500    0.255556   -1.013914
H      1.337803   -1.308545    0.487693
H      0.191168   -1.761990   -1.487468
H     -1.921489   -1.442407   -0.513742
H     -1.977505   -0.035148   -1.662242
H     -1.389236    1.512094    0.035100
H     -2.332885    0.319649    1.025838
H     -0.374320   -0.679166    1.886173
H      0.215644    1.015804    1.707191
17

C      1.493671    0.887174   -0.387605
C      0.768029   -0.219077    0.392517
C      0.179290   -1.270421   -0.545774
C     -1.261895   -0.857471   -0.811508
C     -1.617416    0.217330    0.208839
C     -0.431810    0.331515    1.156706
H      1.888453    1.651565    0.314998
H      0.807208    1.381483   -1.108431
H      2.351670    0.456937   -0.946658
H      1.490320   -0.689817    1.096025
H      0.755108   -1.373075   -1.491890
H      0.167591   -2.256601   -0.033527
H     -1.369472   -0.458990   -1.844212
H     -1.783072    1.189466   -0.305820
H     -2.539822   -0.065808    0.758855
H     -0.616796   -0.304095    2.051187
H     -0.281058    1.379884    1.496298
15

C      2.164096    0.389063   -0.562899
C      0.869572    0.196199   -0.295373
C     -0.220118    0.946436   -0.970290
C     -1.491113    0.251439   -0.503170
C     -1.127640   -0.546120    0.751811
C      0.373827   -0.801630    0.688687
H      2.471672    1.126887   -1.297505
H      2.925637   -0.189570   -0.049239
H     -0.204799    2.002461   -0.623430
H     -1.827100   -0.444599   -1.301765
H     -2.300738    0.984445   -0.296151
H     -1.363137    0.061139    1.653787
H     -1.696872   -1.499687    0.800401
H      0.843208   -0.647128    1.684617
H      0.583504   -1.829334    0.320519
15

C      2.027473    0.571572   -0.128890
C      0.732561    0.257971   -0.019199
C     -0.330602    1.255541    0.269924
C     -1.630861    0.474132    0.134651
C     -1.263035   -1.008218    0.209002
C      0.207979   -1.123467   -0.174343
H      2.764829   -0.196092   -0.342357
H      2.358797    1.598058   -0.005949
H     -0.222203    1.636150    1.307541
H     -0.297354    2.097575   -0.455298
H     -2.089698    0.688574   -0.855931
H     -1.406149   -1.355080    1.255251
H     -1.904494   -1.616936   -0.464517
H      0.737239   -1.829934    0.501580
H      0.315519   -1.449844   -1.231464
15

C      1.842368   -0.247662    0.207319
C      0.538406    0.154222   -0.489335
C     -0.103429    1.401156    0.136187
C     -1.537747    1.037331    0.273013
C     -1.768117   -0.228941   -0.027261
C     -0.530268   -0.949843   -0.420525
H      1.661966   -0.473631    1.280393
H      2.270022   -1.147914   -0.282937
H      2.581114    0.578435    0.132709
H      0.757528    0.382102   -1.555853
H      0.305519    1.622182    1.146263
H     -2.307640    1.720162    0.616516
H     -2.746572   -0.692515    0.044711
H     -0.665859   -1.436977   -1.409927
H     -0.297289   -1.718109    0.348726
15

C      1.497083    0.879538   -0.123997
C      0.415807   -0.079263    0.384150
C      0.184084   -1.263637   -0.567033
C     -1.295528   -1.417253   -0.613077
C     -1.903495   -0.400723   -0.022735
C     -0.953046    0.600542    0.526805
H      1.625428    1.717635    0.593492
H      2.464874    0.342247   -0.215416
H      1.221186    1.295253   -1.117031
H      0.726365   -0.473643    1.378328
H      0.658235   -2.191438   -0.181737
H      0.553458   -1.051652   -1.594078
H     -2.982683   -0.305966    0.030098
H     -1.025953    1.535763   -0.070162
H     -1.185816    0.812597    1.592393
15

C     -1.879386   -0.287074    0.780021
C     -0.701424    0.488639    0.196876
C      0.459113    0.444990    1.127434
C      1.536277   -0.075873    0.567282
C      1.301011   -0.487692   -0.840034
C     -0.171674   -0.151947   -1.098721
H     -2.730807   -0.283494    0.066732
H     -2.210629    0.173141    1.735457
H     -0.994752    1.546518    0.018935
H      0.438408    0.816325    2.147309
H      2.485689   -0.182242    1.081784
H      1.488837   -1.577012   -0.953036
H      1.966886    0.087065   -1.518959
H     -0.729024   -1.077187   -1.367314
H     -0.258524    0.565843   -1.943766
15

C      1.904071   -0.177745   -0.437965
C      0.764636   -0.127013    0.580437
C     -0.160036   -1.279788    0.396183
C     -1.385661   -0.896788    0.085316
C     -1.511205    0.580582   -0.005344
C     -0.131044    1.108075    0.399452
H      1.507697   -0.171999   -1.476699
H      2.569080    0.700219   -0.298022
H      2.505374   -1.098509   -0.283621
H      0.133141   -2.319710    0.498309
H     -2.199548   -1.589657   -0.101550
H     -2.299453    0.943160    0.688728
H     -1.756574    0.872245   -1.049085
H     -0.199740    1.642955    1.370867
H      0.259262    1.813975   -0.367005
15

C      1.912656    0.279967   -0.469301
C      0.649744    0.385604    0.386838
C     -0.273130    1.427358   -0.147358
C     -1.501651    0.956651   -0.284557
C     -1.622653   -0.469752    0.112615
C     -0.182707   -0.907560    0.382648
H      1.655361    0.049692   -1.526010
H      2.568790   -0.524550   -0.074481
H      2.473871    1.238202   -0.437148
H      0.926417    0.653413    1.430264
H     -2.330592    1.560119   -0.638182
H     -2.241588   -0.550702    1.031947
H     -2.076988   -1.063554   -0.709319
H     -0.105706   -1.429838    1.361252
H      0.148175   -1.605049   -0.419208
15

C      1.770751   -0.346019   -0.319960
C      0.539813    0.181540    0.420769
C      0.016443    1.419117   -0.220939
C     -1.273748    1.346233   -0.502478
C     -1.846606    0.034377   -0.096996
C     -0.645730   -0.794798    0.366014
H      1.536183   -0.538434   -1.389472
H      2.116040   -1.291556    0.149461
H      2.595404    0.396059   -0.261443
H      0.805395    0.405168    1.477411
H      0.613299    2.304376   -0.414484
H     -2.563495    0.186132    0.738271
H     -2.361408   -0.443256   -0.957806
H     -0.836368   -1.236944    1.368335
H     -0.465973   -1.621995   -0.356684
15

C      1.819313    0.189180   -0.165840
C      0.445977    0.054585    0.496011
C     -0.443176    1.186716    0.116002
C     -1.584418    0.774590   -0.406336
C     -1.673623   -0.706453   -0.481806
C     -0.316462   -1.197086    0.024622
H      1.721332    0.240579   -1.272035
H      2.452540   -0.683739    0.099981
H      2.324772    1.111076    0.193077
H      0.563336    0.039512    1.601874
H     -0.204434    2.233205    0.277945
H     -2.374501    1.447318   -0.722863
H     -2.490080   -1.059278    0.184342
H     -0.446701   -1.915118    0.863760
H      0.206126   -1.715087   -0.808733
15

C      1.768953   -0.506471   -0.303982
C      0.712607    0.454927    0.245533
C     -0.218902   -0.219289    1.262430
C     -1.609316   -0.239728    0.629735
C     -1.454154    0.536297   -0.627425
C     -0.203477    0.908681   -0.837837
H      2.428869   -0.852844    0.519552
H      2.396588    0.011169   -1.060521
H      1.289116   -1.390530   -0.777536
H      1.204425    1.333008    0.715511
H      0.110366   -1.240611    1.556019
H     -1.926392   -1.278757    0.396629
H     -2.343968    0.251564    1.301000
H     -2.267547    0.758566   -1.310324
H      0.112832    1.474018   -1.708784
13

C      1.956486    0.337169   -0.096845
C      0.639959    0.147775   -0.077479
C     -0.347257    1.204828   -0.046795
C     -1.554402    0.674948   -0.034652
C     -1.523176   -0.821343   -0.055419
C     -0.032155   -1.180183   -0.087047
H      2.631364   -0.508860   -0.120589
H      2.369788    1.337845   -0.089110
H     -0.141416    2.267596   -0.034758
H     -2.462956    1.261882   -0.010401
H     -2.001419   -1.216319    0.866523
H      0.207229   -1.731850   -1.020633
H      0.257954   -1.773487    0.807204
13

C      2.124507    0.181021    0.287078
C      0.817630    0.056294    0.076798
C      0.062150   -1.222635    0.160221
C     -1.370408   -0.803770   -0.194747
C     -1.294249    0.673026   -0.425033
C     -0.071629    1.142238   -0.274053
H      2.723325   -0.683580    0.543444
H      2.606431    1.147094    0.205022
H      0.104361   -1.616692    1.198924
H     -1.697563   -1.317119   -1.122973
H     -2.072524   -1.026788    0.637125
H     -2.141371    1.290658   -0.693020
H      0.209341    2.180253   -0.398785
15

C      2.043337    0.270343   -0.234845
C      0.555667    0.166271   -0.091266
C     -0.283519    1.113376   -0.477832
C     -1.698804    0.756733   -0.201083
C     -1.628738   -0.648202    0.400832
C     -0.142000   -0.998981    0.514294
H      2.533798   -0.641080    0.167088
H      2.310231    0.377789   -1.307185
H      2.413976    1.153819    0.326272
H      0.027346    2.049121   -0.931902
H     -2.122744    1.475582    0.532598
H     -2.118224   -0.675709    1.398973
H     -2.143072   -1.361621   -0.278015
H      0.159033   -1.110988    1.578264
H      0.093713   -1.926456   -0.050882
15

C      2.034122    0.397652   -0.097734
C      0.559470    0.135561   -0.063990
C     -0.333010    1.030878    0.327240
C     -1.719293    0.501039    0.266665
C     -1.564734   -0.920318   -0.276181
C     -0.065284   -1.155384   -0.457945
H      2.577003   -0.501715   -0.457190
H      2.394078    0.649971    0.921824
H      2.249327    1.244110   -0.783230
H     -0.080097    2.033432    0.658522
H     -2.333309    1.110697   -0.428407
H     -2.170610    0.496267    1.281962
H     -2.000202   -1.663036    0.427538
H      0.294662   -1.974092    0.201826
H      0.157877   -1.385060   -1.520898
15

C      2.190510    0.298997   -0.068151
C      0.716095    0.084700    0.083060
C     -0.187959    1.016813   -0.171007
C     -1.572316    0.526125    0.048261
C     -1.394022   -0.905560    0.564820
C      0.106041   -1.199575    0.518678
H      2.743380   -0.626447    0.197760
H      2.425179    0.567275   -1.119700
H      2.521365    1.119500    0.602725
H      0.054322    2.018294   -0.513341
H     -2.131414    0.535499   -0.911914
H     -2.089763    1.161453    0.798677
H     -1.958996   -1.626743   -0.065484
H     -1.747695   -0.983100    1.615183
H      0.325273   -1.987231   -0.234257
17

C      0.710513    1.247264    1.190438
C     -0.100001    1.233190   -0.102318
C      0.200904    0.123880   -1.118348
C      1.293745   -0.910465   -0.802484
C     -1.098646    0.086111   -0.303239
C     -1.246147   -0.984289    0.790575
H      1.662574    1.793545    1.028029
H      0.127773    1.748291    1.990796
H     -0.408128    2.202443   -0.548677
H      0.053741    0.412109   -2.181061
H      0.981004   -1.899378   -1.197141
H      1.526637   -1.017672    0.274521
H      2.227461   -0.609237   -1.320656
H     -2.002855    0.352296   -0.891154
H     -1.423633   -1.969382    0.311376
H     -0.374054   -1.072562    1.466872
H     -2.130889   -0.736145    1.412470
17

C      0.743647    1.922499   -0.004205
C     -0.178997    0.818419    0.497031
C      0.377898   -0.609195    0.512557
C      1.826820   -0.818005    0.058214
C     -0.591049   -0.175402   -0.586685
C     -2.009903   -0.726541   -0.448762
H      0.139141    2.748636   -0.432552
H      1.353993    2.308974    0.838017
H     -0.939469    1.050174    1.273652
H     -0.031934   -1.259155    1.315492
H      1.989097   -1.897284   -0.141978
H      2.513606   -0.502125    0.870732
H      2.076639   -0.252949   -0.865097
H     -0.166686   -0.011209   -1.601565
H     -2.718426   -0.036748   -0.952382
H     -2.064556   -1.717576   -0.945006
H     -2.319822   -0.842513    0.612535
17

C     -0.300570    1.754993    0.901054
C     -0.395547    0.223446    0.958020
C      0.707797   -0.546395    0.211468
C      1.815563    0.239973   -0.501046
C     -0.680444   -0.419038   -0.402191
C     -1.531954   -1.682688   -0.317308
H     -0.370873    2.169570   -0.126678
H      0.648899    2.089638    1.368580
H     -1.138652    2.177922    1.491851
H      0.961216   -1.530094    0.661539
H      2.386402   -0.455731   -1.150215
H      2.510177    0.662957    0.254024
H      1.428300    1.060746   -1.139945
H     -0.784897    0.245713   -1.287111
H     -1.258655   -2.364018   -1.149616
H     -1.394643   -2.219801    0.646735
H     -2.602120   -1.407194   -0.419161
19

C      3.267333   -0.049908   -0.132795
C      1.885435   -0.641672   -0.381994
C      0.776871    0.272416    0.141640
C     -0.591633   -0.391319   -0.035547
C     -1.712177    0.506359    0.501717
C     -3.077755   -0.151373    0.325671
H      3.371065    0.923663   -0.657566
H      3.430174    0.096585    0.955770
H      4.040050   -0.748589   -0.515464
H      1.750406   -0.827251   -1.469944
H      0.948523    0.475223    1.221591
H      0.800009    1.236934   -0.412061
H     -0.766886   -0.591185   -1.115944
H     -0.602109   -1.361044    0.509910
H     -1.546640    0.706758    1.582836
H     -1.707982    1.476824   -0.041028
H     -3.279716   -0.339412   -0.750406
H     -3.867763    0.520159    0.723046
H     -3.117206   -1.113169    0.880179
19

C      3.203988    0.204833    0.039226
C      1.886549   -0.557135   -0.039346
C      0.702633    0.406554    0.048048
C     -0.632296   -0.339316    0.065399
C     -1.791242    0.644326    0.247441
C     -3.131738   -0.083770    0.285542
H      3.290965    0.914533   -0.811103
H      4.051283   -0.511313   -0.008180
H      3.266105    0.767748    0.995085
H      1.844552   -1.119853   -0.997298
H      1.842340   -1.281717    0.802400
H      0.729016    1.119915   -0.805258
H     -0.758317   -0.894546   -0.890227
H     -0.635033   -1.067511    0.905957
H     -1.658696    1.206064    1.198000
H     -1.801606    1.372043   -0.593345
H     -3.951571    0.653558    0.416668
H     -3.298449   -0.635167   -0.664344
H     -3.158484   -0.799246    1.134944
17

C      3.184157    0.357445    0.474374
C      2.138110   -0.168971   -0.164221
C      0.740623    0.088553    0.321039
C     -0.291337   -0.722589   -0.467453
C     -1.689396   -0.628772    0.157772
C     -2.339317    0.738710   -0.052290
H      3.045687    0.983733    1.350781
H      4.191282    0.162351    0.120409
H      2.311434   -0.796169   -1.034786
H      0.522572    1.175050    0.245307
H      0.014158   -1.791957   -0.461174
H     -0.319106   -0.380710   -1.525549
H     -2.338387   -1.398291   -0.313861
H     -1.635789   -0.853249    1.245504
H     -1.788899    1.525853    0.503250
H     -3.382495    0.713169    0.327315
H     -2.363296    0.995843   -1.132617
17

C      2.984040   -0.035433    0.055480
C      1.984516    0.472937    0.782423
C      0.590203   -0.078256    0.699049
C     -0.017266    0.214282   -0.675341
C     -1.340566   -0.517370   -0.923520
C     -2.487090    0.053009   -0.090758
H      2.812377   -0.860173   -0.629800
H      3.984481    0.375084    0.145390
H      2.190395    1.288269    1.469755
H      0.617886   -1.173962    0.884869
H     -0.029166    0.396984    1.488899
H     -0.127902    1.308748   -0.839829
H     -1.596923   -0.412842   -1.999144
H     -1.223446   -1.601311   -0.708315
H     -2.311838   -0.125462    0.990566
H     -2.593867    1.143532   -0.273079
H     -3.435834   -0.448037   -0.376646
17

C     -2.291548    0.647804    1.661244
C     -1.628660    1.117714    0.600275
C     -0.182479    0.782739    0.357181
C     -0.017510   -0.677353   -0.082542
C      1.459087   -1.053447   -0.246439
C      2.075235   -0.498194   -1.528142
H     -3.330273    0.920465    1.816717
H     -1.805560   -0.004350    2.380577
H     -2.137947    1.786347   -0.087613
H      0.198004    1.456667   -0.438791
H      0.404863    0.974612    1.282007
H     -0.569416   -0.858761   -1.031179
H     -0.452491   -1.341295    0.695720
H      1.560057   -2.160445   -0.248369
H      2.094128    0.610315   -1.505001
H      3.120932   -0.859615   -1.616071
H      1.503578   -0.843203   -2.415776
15

C      3.469596    1.189516   -0.279104
C      2.537129    0.426137   -0.311477
C      1.402867   -0.503481   -0.350912
C      0.124959    0.179595    0.131836
C     -1.033491   -0.820861    0.168246
C     -2.316691   -0.161126    0.664992
H      4.288036    1.859829   -0.250634
H      1.274137   -0.878263   -1.388811
H      0.289686    0.586262    1.154365
H     -0.128244    1.020350   -0.551848
H     -1.210324   -1.227679   -0.851495
H     -0.776936   -1.665327    0.844833
H     -2.175569    0.231060    1.694739
H     -2.607651    0.672802   -0.008821
H     -3.137504   -0.908814    0.679402
15

C      2.991442    0.413888    0.741911
C      2.188269    0.035796   -0.073842
C      1.211259   -0.425120   -1.065913
C     -0.143070    0.247582   -0.841505
C     -0.871200   -0.295473    0.392352
C     -2.172493    0.463640    0.622027
H      3.696142    0.745848    1.458226
H      1.586567   -0.155165   -2.075265
H      1.114250   -1.530477   -1.011683
H     -0.778278    0.104214   -1.742970
H     -1.097036   -1.374902    0.251698
H     -0.229887   -0.180770    1.292502
H     -2.678823    0.068549    1.527884
H     -1.965199    1.544741    0.772465
H     -2.851942    0.337648   -0.247887
15

C      2.839347    0.639320    0.681154
C      1.951276    0.380250   -0.091872
C      0.868689    0.065355   -1.033784
C     -0.112443   -0.952718   -0.440361
C     -0.805231   -0.442200    0.831001
C     -1.878280    0.604747    0.543961
H      3.618703    0.866629    1.360003
H      0.343213    1.000265   -1.317483
H      1.318727   -0.362333   -1.954485
H     -0.874285   -1.220668   -1.204502
H      0.444511   -1.882751   -0.191799
H     -1.269102   -1.298296    1.366970
H     -2.382770    0.879365    1.493640
H     -1.424728    1.521948    0.116524
H     -2.637627    0.201086   -0.158966
15

C     -1.853242    1.264231    0.388746
C     -1.612181   -0.046549    0.354546
C     -0.378936   -0.611804    0.992508
C      0.570264   -1.213867   -0.045014
C      1.162999   -0.152224   -0.930283
C      1.992023    0.779283   -0.450076
H     -1.165322    1.944669    0.881971
H     -2.744795    1.665049   -0.082325
H     -2.307293   -0.709922   -0.151615
H     -0.672648   -1.387069    1.731592
H      1.390835   -1.749364    0.479207
H      0.025260   -1.956345   -0.667763
H      0.925765   -0.155841   -1.990005
H      2.411312    1.527736   -1.114475
H      2.255960    0.802016    0.602985
13

C      3.311528    0.273593    0.204620
C      2.124110    0.480310    0.179994
C      0.679268    0.732744    0.150072
C     -0.101269   -0.567737    0.332612
C     -1.576102   -0.293911    0.417385
C     -2.284543    0.083114   -0.651321
H      4.353880    0.091910    0.226232
H      0.415757    1.216121   -0.814677
H      0.219650   -1.056627    1.278255
H      0.105078   -1.265800   -0.508713
H     -2.085940   -0.438730    1.365428
H     -3.351651    0.258124   -0.561050
H     -1.809767    0.215339   -1.618837
13

C      2.250819    0.953544    0.357778
C      1.587402   -0.002424    0.042247
C      0.781546   -1.168022   -0.341515
C     -0.548407   -0.749745   -0.971125
C     -1.552549   -0.262913    0.035834
C     -1.519731    0.980583    0.522390
H      2.832413    1.793101    0.634786
H      0.602604   -1.805945    0.550071
H      1.353711   -1.762327   -1.083635
H     -0.414962   -0.029500   -1.808241
H     -2.346321   -0.935199    0.344950
H     -2.270369    1.303534    1.236287
H     -0.756155    1.685313    0.208621
11

C      2.347408    0.478065    0.946794
C      1.531994   -0.223963    0.403155
C      0.538047   -1.079321   -0.260410
C     -0.884256   -0.721623    0.164922
C     -1.284250    0.572678   -0.399510
C     -1.613212    1.636257   -0.862261
H      3.062962    1.094567    1.424130
H      0.750151   -2.139547   -0.007267
H     -0.966577   -0.688672    1.272855
H     -1.580602   -1.498362   -0.214863
H     -1.901666    2.569921   -1.268457
17

C      2.775971    0.320056    0.652163
C      1.558675   -0.253600   -0.003861
C      0.536641    0.531816   -0.365669
C     -0.679313   -0.037730   -1.039145
C     -1.562884   -0.842358   -0.079319
C     -2.223052    0.043418    0.976151
H      2.494200    0.816894    1.604549
H      3.257453    1.059235   -0.022394
H      3.500954   -0.491448    0.871464
H      1.514490   -1.324243   -0.184814
H      0.591991    1.605374   -0.205905
H     -1.268537    0.773568   -1.518651
H     -2.356978   -1.343424   -0.672623
H     -0.964241   -1.634495    0.419632
H     -2.886428   -0.575134    1.616594
H     -1.454321    0.518927    1.621369
H     -2.834621    0.833144    0.490134
17

C      2.967906   -0.061516    0.223488
C      1.500133   -0.467441    0.171277
C      0.600199    0.716759   -0.185573
C     -0.824198    0.269196   -0.352502
C     -1.574082   -0.094658    0.697484
C     -2.997726   -0.521217    0.516529
H      3.125914    0.716583    1.000405
H      3.292360    0.329283   -0.763911
H      3.585481   -0.949238    0.473010
H      1.201836   -0.902720    1.149758
H      0.660532    1.499914    0.601720
H      0.944002    1.159884   -1.145007
H     -1.257888    0.274342   -1.349254
H     -1.153652   -0.081201    1.699450
H     -3.044866   -1.413475   -0.142924
H     -3.439649   -0.779188    1.501618
H     -3.586300    0.304692    0.064106
17

C      2.727550    0.020394   -0.271837
C      1.897374    0.093344    0.976660
C      0.567992   -0.088017    0.981925
C     -0.209234   -0.389503   -0.273646
C     -1.679980   -0.718999   -0.002196
C     -2.489013    0.521901    0.372596
H      2.618547   -0.978722   -0.744072
H      3.796579    0.180196   -0.019131
H      2.410289    0.807976   -0.987215
H      2.399627    0.295462    1.918309
H      0.047124   -0.034689    1.933950
H     -0.119776    0.443689   -1.004189
H     -2.113637   -1.160611   -0.924413
H     -1.757929   -1.478401    0.805888
H     -3.551466    0.238295    0.526224
H     -2.105774    0.971722    1.312320
H     -2.438274    1.275961   -0.441498
17

C      2.462591   -0.205706    0.397656
C      1.298304    0.736171    0.690450
C      0.299207    0.827937   -0.467438
C     -0.453313   -0.465004   -0.666407
C     -1.565989   -0.806120    0.007377
C     -2.233437    0.078310    1.020631
H      2.100240   -1.249406    0.286240
H      3.184085   -0.167058    1.239920
H      2.985365    0.106907   -0.530632
H      0.797709    0.450175    1.639150
H     -0.402204    1.667862   -0.283116
H      0.848207    1.071763   -1.402122
H     -0.064082   -1.164879   -1.400342
H     -2.022517   -1.768334   -0.206061
H     -3.131305   -0.434117    1.424932
H     -1.545411    0.293344    1.863036
H     -2.557450    1.028155    0.546401
15

C      3.048565    0.528100    0.317567
C      1.767197   -0.056484   -0.077638
C      0.710503   -0.537209   -0.402430
C     -0.577768   -1.121084   -0.797093
C     -1.662601   -0.875692    0.254046
C     -2.082373    0.592355    0.320544
H      3.563483   -0.153417    1.025553
H      3.681670    0.674247   -0.581692
H      2.872461    1.507143    0.808830
H     -0.886826   -0.733105   -1.791050
H     -2.550216   -1.488641   -0.010764
H     -1.306079   -1.209192    1.253044
H     -2.897334    0.711175    1.065247
H     -1.226677    1.228848    0.630459
H     -2.454004    0.932957   -0.669313
15

C      2.826158    0.892217    0.378195
C      1.620985    0.154563   -0.000163
C      0.626931   -0.452487   -0.311167
C     -0.584982   -1.190132   -0.689271
C     -1.701587   -0.989386    0.337296
C     -2.277467    0.423949    0.321334
H      2.540063    1.802125    0.944842
H      3.382636    1.185505   -0.535674
H      3.469862    0.248778    1.012604
H     -0.921821   -0.859574   -1.694502
H     -0.339622   -2.271025   -0.743393
H     -1.358506   -1.261867    1.359500
H     -3.123371    0.481724    1.037273
H     -1.504788    1.162973    0.621391
H     -2.654491    0.672637   -0.692954
17

C      2.966455   -0.074478    0.094333
C      1.786853    0.885819    0.044109
C      0.515816    0.191837    0.422591
C     -0.462553    0.030574   -0.476872
C     -1.738914   -0.686053   -0.132431
C     -2.603494    0.141819    0.814325
H      3.101606   -0.468285    1.124462
H      3.889272    0.462130   -0.209143
H      2.800095   -0.919737   -0.606732
H      1.962429    1.742534    0.728759
H      0.403745   -0.192682    1.432883
H     -0.328072    0.395400   -1.491927
H     -2.310829   -0.872114   -1.066735
H     -1.507373   -1.669863    0.330435
H     -3.554494   -0.395613    1.013482
H     -2.080198    0.302238    1.780781
H     -2.840344    1.126474    0.357356
17

C      2.331874    0.194031   -0.420948
C      1.201627   -0.721905    0.032159
C      0.123818    0.043629    0.814219
C     -0.834844    0.847480   -0.063558
C     -1.987956   -0.038618    0.387431
C     -1.034692   -0.845215    1.259158
H      1.948023    0.968846   -1.117731
H      2.800161    0.685808    0.457512
H      3.104002   -0.407716   -0.943666
H      0.769314   -1.260309   -0.840100
H      0.537436    0.640004    1.658088
H     -0.638714    0.759956   -1.155126
H     -0.946802    1.897242    0.285406
H     -2.745950    0.516174    0.982603
H     -2.415129   -0.639004   -0.445449
H     -1.259921   -0.736333    2.342709
H     -0.952247   -1.904069    0.926968
17

C      2.103983   -0.816617   -0.269807
C      1.162399    0.022475    0.589739
C     -0.115136    0.398866   -0.181820
C     -1.123055   -0.739712   -0.341328
C     -2.132051    0.048459    0.481677
C     -1.125174    1.174593    0.658553
H      1.617656   -1.771347   -0.561462
H      3.023864   -1.049950    0.306611
H      2.391214   -0.257158   -1.185506
H      1.690098    0.954677    0.886126
H      0.911681   -0.538993    1.516839
H      0.092471    0.904854   -1.150636
H     -0.816102   -1.657614    0.207757
H     -2.392206   -0.451181    1.440742
H     -3.010628    0.353557   -0.126373
H     -0.826323    1.308550    1.722019
H     -1.452690    2.116540    0.166542
17

C      2.100034   -0.603629    0.024783
C      0.957894    0.242747    0.580390
C     -0.172607    0.403683   -0.451024
C     -1.058592   -0.830149   -0.608401
C     -2.249530   -0.050263   -0.069379
C     -1.370289    1.182972    0.084297
H      2.907440   -0.681148    0.783042
H      1.743748   -1.626844   -0.218403
H      2.517304   -0.133915   -0.891322
H      0.574768   -0.224076    1.514773
H      1.355460    1.248349    0.837393
H      0.181395    0.804597   -1.427510
H     -1.204198   -1.110684   -1.673561
H     -0.779832   -1.686697    0.044774
H     -2.544192   -0.439718    0.930293
H     -1.686848    1.995792   -0.604073
H     -1.271956    1.508985    1.143928
15

C      1.790879    0.604394    0.994515
C      1.320301    0.879793   -0.228623
C     -0.042569    0.440463   -0.714947
C     -1.161608    0.729475    0.278995
C     -1.429277   -0.766344    0.396640
C     -0.311765   -1.056846   -0.595399
H      1.204946    0.036957    1.710416
H      2.776760    0.951545    1.285987
H      1.942611    1.455731   -0.906746
H     -0.269117    0.827836   -1.733403
H     -2.010908    1.235243   -0.231335
H     -1.203071   -1.145806    1.416182
H     -2.432233   -1.057692    0.014262
H      0.519613   -1.641130   -0.142857
H     -0.694562   -1.493619   -1.543687
15

C      1.747954    0.062385    0.934073
C      1.235093    0.764983   -0.084202
C     -0.154603    0.538139   -0.643856
C     -1.271295    0.528108    0.396377
C     -1.581850   -0.923281    0.049548
C     -0.474756   -0.911425   -0.998052
H      1.180341   -0.723727    1.421362
H      2.751552    0.275584    1.287256
H      1.844965    1.540876   -0.536802
H     -0.378856    1.229920   -1.486114
H     -2.111920    1.199082    0.117268
H     -0.932381    0.658369    1.447821
H     -1.303828   -1.589424    0.896051
H      0.338102   -1.637687   -0.776292
H     -0.888518   -1.011901   -2.024437
13

C      2.763392   -0.038230    0.463898
C      1.592174   -0.313655    0.386002
C      0.164593   -0.650094    0.292223
C     -0.315892   -0.628604   -1.151051
C     -1.225973    0.547974   -0.824397
C     -0.749636    0.524835    0.619962
H      3.791346    0.203739    0.532188
H     -0.100337   -1.584022    0.834860
H     -0.921830   -1.535967   -1.368308
H     -0.914346    1.469787   -1.360990
H     -2.305854    0.302273   -0.927409
H     -1.561161    0.242409    1.325806
H     -0.216475    1.459554    0.905666
13

C      2.553979   -0.390011   -0.449110
C      1.382461   -0.124390   -0.551693
C     -0.048418    0.200259   -0.677776
C     -0.546654    1.130115    0.422410
C     -1.450015    0.025104    0.953576
C     -0.957584   -0.902926   -0.148930
H      3.582246   -0.623229   -0.358796
H     -0.325287    0.543122   -1.698678
H      0.230327    1.438617    1.158074
H     -1.139361    1.978986    0.018883
H     -1.085851   -0.326896    1.944203
H     -0.423297   -1.795126    0.249304
H     -1.772545   -1.153627   -0.861467
17

C      2.369634   -0.393697   -0.343371
C      1.574791   -0.031939    0.907736
C      0.351265    0.840378    0.614860
C     -0.744729    0.048479   -0.114777
C     -1.703315   -0.725232    0.777678
C     -2.160422    0.560360    0.105281
H      1.775206   -1.055379   -1.007120
H      3.293436   -0.930793   -0.044235
H      2.658556    0.525297   -0.895384
H      1.287440   -0.947084    1.469694
H     -0.017162    1.245772    1.582464
H      0.649435    1.707560   -0.012009
H     -0.559384   -0.379477   -1.122842
H     -1.536296   -0.630418    1.872078
H     -2.114602   -1.647666    0.316234
H     -2.274579    1.417030    0.803665
H     -2.849274    0.396809   -0.750281
17

C      2.699102   -0.117171    0.129891
C      1.279757   -0.665529    0.214959
C      0.265306    0.402338   -0.188252
C     -1.152777   -0.177904   -0.228894
C     -1.944288   -0.067798    1.065066
C     -2.267714    0.848611   -0.105534
H      2.920361    0.218094   -0.905974
H      3.422266   -0.912173    0.409241
H      2.825054    0.738256    0.827505
H      1.192021   -1.539780   -0.466067
H      1.077179   -1.001731    1.255158
H      0.344195    1.284709    0.485920
H     -1.386258   -1.051806   -0.873934
H     -1.431601    0.439438    1.910403
H     -2.684687   -0.880731    1.219846
H     -1.953858    1.903317    0.049087
H     -3.204058    0.579859   -0.638747
17

C      2.456889    0.400824   -0.288946
C      1.224640    0.102805    0.560178
C      0.036652   -0.310249   -0.312975
C     -1.179604   -0.631296    0.561135
C     -2.507222   -0.465659   -0.159650
C     -2.078450    0.544122    0.895877
H      2.755172   -0.500442   -0.865864
H      3.300227    0.695454    0.370553
H      2.248232    1.234809   -0.992530
H      1.467784   -0.715136    1.273272
H      0.960958    1.011762    1.143863
H     -0.189796    0.499944   -1.042700
H      0.301055   -1.223753   -0.888173
H     -1.141321   -1.457001    1.304318
H     -3.257892   -1.164302    0.267820
H     -2.622462    0.452854    1.859998
H     -1.774862    1.525266    0.473497
15

C      2.434622    0.123117    0.729310
C      1.681814   -0.494659   -0.181172
C      0.537908    0.216021   -0.830941
C     -0.783358   -0.421271   -0.419886
C     -1.396432    0.159547    0.843222
C     -1.974064    0.516977   -0.516628
H      2.236930    1.153493    1.010024
H      3.256749   -0.403893    1.202430
H      1.888693   -1.528840   -0.440618
H      0.649391    0.170382   -1.934518
H     -0.998014   -1.491304   -0.629110
H     -2.015469   -0.556721    1.423565
H     -0.826866    0.984056    1.324191
H     -1.752397    1.557241   -0.839598
H     -2.939508    0.015852   -0.740273
15

C     -2.173774    0.555701   -0.641481
C     -1.667924   -0.563143   -0.114245
C     -0.396812   -0.554607    0.686219
C      0.808167   -0.284502   -0.220210
C      1.299430    1.154263   -0.210072
C      2.083942    0.072736    0.518436
H     -1.672225    1.510187   -0.514403
H     -3.100785    0.519708   -1.204324
H     -2.203566   -1.498927   -0.244470
H     -0.479522    0.193769    1.506324
H     -0.263807   -1.554114    1.152042
H      0.952368   -0.856682   -1.162449
H      1.786006    1.389491   -1.180590
H      2.006263    0.143658    1.624138
H      3.022239   -0.227538    0.005085
13

C      3.010791   -0.600333    0.309737
C      1.989584    0.034801    0.393505
C      0.748519    0.806655    0.496064
C     -0.244445    0.349857   -0.574949
C     -1.697512    0.687002   -0.279436
C     -1.209484   -0.748546   -0.155121
H      3.907141   -1.158099    0.236070
H      0.342752    0.720217    1.527455
H      0.033216    0.377502   -1.650612
H     -2.321641    0.870863   -1.179413
H     -1.902650    1.177723    0.696294
H     -1.538943   -1.410413   -0.983651
H     -1.117327   -1.107227    0.892505
13

C      2.670761   -0.640829    0.690743
C      1.697476    0.018907    0.424430
C      0.514377    0.820923    0.101606
C     -0.433521    0.008218   -0.787189
C     -1.882615    0.479233   -0.799980
C     -1.496374   -0.794884   -0.060926
H      3.524997   -1.220151    0.924436
H      0.032327    1.143020    1.050092
H      0.837688    1.727143   -0.451586
H     -0.078004   -0.416984   -1.749986
H     -2.061658    1.299838   -0.071977
H     -1.808304   -1.720388   -0.587899
H     -1.517150   -0.704048    1.046685
15

C      2.573160    0.379848   -0.351395
C      1.166733    0.065199   -0.756785
C      0.264652   -0.341737    0.144222
C     -1.137743   -0.668024   -0.273396
C     -2.167473   -0.409639    0.812631
C     -2.055084    0.534875   -0.374410
H      2.577314    1.201876    0.395279
H      3.156620    0.699222   -1.240097
H      3.051618   -0.521048    0.087578
H      0.882731    0.174259   -1.800222
H      0.551631   -0.462097    1.185987
H     -1.347244   -1.513042   -0.963895
H     -3.035739   -1.089061    0.675605
H     -1.603538    1.515921   -0.113601
H     -2.877640    0.433447   -1.114054
15

C      1.912010   -0.619199   -0.722453
C      1.583078    0.420549    0.309082
C      0.330779    0.837367    0.553651
C     -0.860798    0.313010   -0.198593
C     -1.392656   -0.994847    0.362587
C     -2.156041    0.300312    0.590131
H      1.411194   -1.577695   -0.471522
H      1.582587   -0.277827   -1.726339
H      3.008971   -0.787313   -0.746240
H      2.398055    0.856724    0.879370
H      0.178481    1.611023    1.301045
H     -0.946160    0.444496   -1.298691
H     -1.873739   -1.582379   -0.448319
H     -2.098053    0.661220    1.639036
H     -3.077706    0.394558   -0.022745
13

C      2.856060    0.093175    0.181108
C      1.427388   -0.088090   -0.075801
C      0.249726   -0.237019   -0.287058
C     -1.181879   -0.419589   -0.544266
C     -1.938886    0.894501   -0.593311
C     -2.079163   -0.024711    0.610791
H      3.119297   -0.373284    1.152694
H      3.441642   -0.386457   -0.630003
H      3.091091    1.176887    0.215641
H     -1.542357   -1.221342   -1.223199
H     -2.826964    0.792319   -1.253090
H     -1.568502    0.360930    1.519311
H     -3.047453   -0.567319    0.655630
17

C      1.942329    0.832467   -1.097391
C      1.109890   -0.411877   -0.823659
C      0.572955   -0.395146    0.617320
C     -0.612821   -1.324709    0.856509
C     -0.811224    0.187154    0.918547
C     -1.627460    0.796678   -0.227351
H      1.323830    1.750025   -1.009177
H      2.804788    0.890086   -0.399470
H      1.763134   -1.301805   -0.942474
H      0.311696   -0.488943   -1.588911
H      1.299022   -0.379500    1.458509
H     -1.011774   -1.838030   -0.044932
H     -0.604588   -1.819521    1.850589
H     -0.921326    0.608840    1.940284
H     -1.110801    1.697675   -0.616595
H     -2.615685    1.109726    0.168443
H     -1.811965    0.086882   -1.060241
17

C      2.111997    0.381222    0.784630
C      1.162788    0.708057   -0.359001
C      0.360421   -0.529528   -0.788432
C     -0.901461   -0.214054   -1.584873
C     -1.018401   -0.797205   -0.179364
C     -1.552053    0.158661    0.894076
H      1.541800    0.072082    1.685394
H      2.801077   -0.436675    0.485897
H      2.714163    1.280304    1.030844
H      0.542426    1.594475   -0.113624
H      0.909252   -1.420805   -1.160864
H     -1.149162    0.864089   -1.692138
H     -1.118874   -0.942949   -2.393934
H     -1.301580   -1.870317   -0.133119
H     -0.928017    0.079543    1.807685
H     -2.587218   -0.143546    1.155521
H     -1.587159    1.216645    0.561302
17

C      2.064503    0.044223    0.798491
C      1.112107    0.590077   -0.258210
C      0.311083   -0.559688   -0.895903
C     -0.945182   -0.069836   -1.613043
C     -1.080170   -0.865032   -0.321930
C     -1.599902   -0.081028    0.890517
H      1.496960   -0.445497    1.617246
H      2.759758   -0.694345    0.345061
H      2.661084    0.876498    1.227985
H      0.483006    1.385922    0.189699
H      1.716105    1.069153   -1.057922
H     -1.146967    1.021640   -1.550883
H     -1.185064   -0.652762   -2.526426
H     -1.407094   -1.917584   -0.456934
H     -0.941827   -0.259733    1.765210
H     -1.683691    1.009847    0.703601
H     -2.614707   -0.451857    1.143441
17

C      2.026432    0.569570    0.425908
C      0.816906    0.649535   -0.498301
C      0.040877   -0.675301   -0.484800
C     -1.392709   -0.526131   -0.977886
C     -1.125678   -0.873744    0.481472
C     -1.483513    0.248839    1.458449
H      2.701958   -0.252098    0.105179
H      2.588214    1.526586    0.387443
H      1.704521    0.388316    1.472641
H      1.176049    0.830171   -1.534011
H      0.192036    1.521265   -0.214422
H      0.543730   -1.597299   -0.849253
H     -1.701147   -1.438826   -1.531194
H     -1.334526   -1.927904    0.764091
H     -2.370793   -0.061446    2.048259
H     -0.643207    0.418871    2.162116
H     -1.739150    1.199594    0.943983
17

C      1.975139    0.266643   -0.974206
C      1.299444    0.787230    0.288684
C     -0.200974    0.482017    0.255258
C     -0.890094    0.538645    1.609870
C     -0.593101   -0.811944    0.960874
C     -1.836440   -1.457774    0.342923
H      1.531866    0.744680   -1.873846
H      3.059126    0.505198   -0.942173
H      1.854415   -0.835335   -1.047579
H      1.438419    1.887883    0.346271
H      1.792322    0.329216    1.175416
H     -0.821282    0.827145   -0.601045
H     -1.946733    0.881133    1.573445
H     -0.231609    0.772220    2.473148
H     -2.559311   -0.720261   -0.070214
H     -2.352082   -2.060601    1.118710
H     -1.519105   -2.136093   -0.475862
17

C      2.286654    0.598272   -0.014773
C      1.494939   -0.590857   -0.567330
C      0.694159   -1.389689    0.457456
C     -0.033281   -0.513089   -0.557786
C     -0.698615    0.752469    0.011039
C     -2.187847    0.513773    0.229682
H      2.053703    0.843376    1.042533
H      2.149997    1.488059   -0.663926
H      1.927213   -1.184376   -1.400296
H      0.709872   -1.009440    1.501343
H      0.632493   -2.475967    0.236149
H     -0.524847   -1.060362   -1.391018
H     -0.571472    1.580039   -0.718942
H     -0.251840    1.070953    0.976666
H     -2.658604    1.436443    0.629877
H     -2.681892    0.250416   -0.729951
H     -2.340633   -0.310019    0.959278
17

C      2.077409    1.097866   -0.795347
C      1.505268   -0.294816   -0.581104
C     -0.023986   -0.226152   -0.519876
C     -0.686950   -1.396913    0.199622
C     -0.616888   -0.029541    0.870801
C     -1.936594    0.740279    0.909908
H      1.726548    1.517689   -1.762314
H      3.186982    1.056092   -0.797968
H      1.938456   -0.719535    0.351178
H      1.802750   -0.946814   -1.429794
H     -0.596974    0.169400   -1.386832
H     -1.678553   -1.681462   -0.213019
H      0.002986   -2.150896    0.635500
H      0.093060    0.046306    1.722486
H     -1.721081    1.825249    0.998052
H     -2.518990    0.419744    1.798477
H     -2.553442    0.573505    0.000231
17

C      2.607648    0.293545    0.143877
C      1.341273   -0.333625    0.709257
C      0.096722    0.285024    0.081426
C     -0.380253   -0.415074   -1.185447
C     -1.126080   -0.620505    0.127156
C     -2.469618    0.101827    0.224877
H      3.493846   -0.185110    0.609821
H      2.654244    0.135104   -0.954246
H      2.629658    1.382611    0.362101
H      1.310338   -0.192641    1.810600
H     -0.081739    1.381203    0.133180
H     -0.865728    0.262603   -1.919885
H      0.227204   -1.289353   -1.504416
H     -1.000282   -1.623608    0.589653
H     -2.721536    0.256260    1.294475
H     -3.256605   -0.528530   -0.238584
H     -2.459092    1.090269   -0.283847
17

C      2.441601    0.119027   -0.317037
C      1.282770    0.272866    0.660845
C     -0.059523    0.176505   -0.077048
C     -0.632171   -1.230579   -0.244003
C     -1.230530   -0.274927    0.780442
C     -2.589969    0.284516    0.370842
H      2.403599   -0.878964   -0.803513
H      2.395726    0.909162   -1.096729
H      3.404221    0.212849    0.228436
H      1.348522    1.271102    1.143579
H      1.376722   -0.497117    1.458426
H     -0.292357    0.885373   -0.900730
H     -0.011552   -1.995581    0.270082
H     -1.030446   -0.528899    1.844216
H     -3.387779   -0.399899    0.726788
H     -2.733781    1.276790    0.846451
H     -2.685053    0.397774   -0.731372
17

C      2.727011    0.191246   -0.323198
C      1.326810   -0.306617   -0.677073
C      0.690245   -1.217639    0.366529
C      0.204128    0.220310    0.208890
C     -1.147778    0.385130   -0.496467
C     -2.287054    0.328520    0.514276
H      2.854547    0.388416    0.763382
H      2.947256    1.117274   -0.893475
H      1.079132   -0.554270   -1.731625
H      1.286503   -1.393138    1.287436
H      0.023616   -1.999351   -0.056355
H      0.495395    0.919975    1.022498
H     -1.310940   -0.397942   -1.269926
H     -1.163533    1.373376   -1.003307
H     -2.171316    1.133421    1.271271
H     -3.256399    0.468757   -0.008851
H     -2.297624   -0.657466    1.025993
15

C      2.506108    0.474101    0.497259
C      1.417855    0.482184   -0.270799
C      0.570917   -0.753063   -0.399571
C     -0.220873   -1.103578    0.858460
C     -0.950104   -0.587873   -0.375446
C     -1.534905    0.822784   -0.237617
H      3.136465    1.354413    0.568228
H      1.179846    1.366693   -0.853717
H      0.969250   -1.634865   -0.945031
H     -0.127116   -0.387640    1.704203
H     -0.338529   -2.194582    1.028620
H     -1.518760   -1.357884   -0.938852
H     -1.507889    1.326838   -1.225883
H     -0.989864    1.448583    0.500958
H     -2.592401    0.743889    0.089188
15

C      2.238583    0.539951    0.683004
C      1.118412   -0.084248    1.044790
C      0.367969   -0.956761    0.080314
C     -1.086717   -1.184234    0.474628
C     -0.755820   -0.316731   -0.734615
C     -1.018279    1.183263   -0.555199
H      2.636691    0.434816   -0.321810
H      2.759946    1.164724    1.399460
H      0.865947   -1.844525   -0.364616
H     -1.433601   -0.642357    1.381745
H     -1.473978   -2.191600    0.213149
H     -0.950182   -0.788720   -1.721075
H     -2.026271    1.422809   -0.952517
H     -0.264791    1.756705   -1.134004
H     -0.977908    1.506907    0.506746
15

C     -2.263875   -0.851165    0.050550
C     -1.186442   -0.309877   -0.522169
C     -0.428076    0.802272    0.147302
C      0.334567    0.337073    1.383376
C      1.096686    0.741748    0.130970
C      1.775994   -0.436093   -0.571745
H     -2.601456   -0.520028    1.028116
H     -2.815742   -1.633225   -0.460601
H     -0.890679   -0.638996   -1.513699
H     -0.900622    1.801947    0.256349
H      0.378643    1.156797    2.131926
H      1.620675    1.719612    0.192303
H      2.837219   -0.484459   -0.250866
H      1.296990   -1.410306   -0.332412
H      1.746117   -0.275300   -1.669399
15

C     -1.532173    1.053117    0.753843
C     -1.327658   -0.284498    0.051797
C     -0.244406   -1.141414    0.689055
C     -0.002246   -0.505257   -0.676394
C      1.002439    0.616295   -0.658027
C      2.303512    0.370289   -0.490230
H     -2.201496    0.917947    1.628678
H     -1.989107    1.777571    0.048391
H     -2.201801   -0.850730   -0.333991
H      0.296167   -0.675579    1.542786
H     -0.450212   -2.231969    0.650475
H     -0.008386   -1.225296   -1.522036
H      0.674173    1.634692   -0.842506
H      3.017694    1.187028   -0.508176
H      2.663500   -0.642197   -0.333664
15

C      2.800014   -0.678675    0.352502
C      1.780391   -0.207177   -0.362655
C      0.371438   -0.550797    0.016641
C     -0.175153    0.264421    1.184914
C     -0.641598    0.559123   -0.234690
C     -2.057827    0.085092   -0.559590
H      3.822543   -0.449596    0.070865
H      1.974334    0.393900   -1.246223
H      0.018906   -1.603731   -0.032969
H      0.512270    1.032110    1.601626
H     -0.896049   -0.286951    1.825871
H     -0.262840    1.510910   -0.666670
H     -2.153239   -0.047245   -1.657188
H     -2.784756    0.855958   -0.229644
H     -2.308435   -0.877342   -0.062790
15

C     -2.320861   -0.545474    0.238791
C     -1.602489    0.525395   -0.104340
C     -0.212558    0.375798   -0.653987
C      0.769976    1.469070   -0.238493
C      0.845888    0.089153    0.398415
C      2.031272   -0.742209   -0.083437
H     -1.907741   -1.545732    0.148148
H     -3.331148   -0.424129    0.615681
H     -2.045499    1.513690   -0.023083
H     -0.053352   -0.067594   -1.660063
H      0.315580    2.186430    0.479163
H      0.520261    0.035021    1.460552
H      2.909345   -0.533239    0.562278
H      1.777448   -1.819466   -0.001873
H      2.303876   -0.516713   -1.137754
15

C     -2.221998   -0.089842    0.602590
C     -0.792975   -0.590893    0.402064
C     -0.493087   -1.130271   -0.990218
C      0.053708    0.228336   -0.564576
C      1.518797    0.238647   -0.237573
C      1.997959    1.025790    0.727417
H     -2.249681    0.622549    1.452919
H     -2.639092    0.401538   -0.303172
H     -0.267014   -1.111880    1.231302
H      0.241221   -1.964433   -1.002078
H     -1.326977   -1.073157   -1.722207
H     -0.422419    1.118637   -1.029216
H      2.204219   -0.372309   -0.817725
H      3.061764    1.037500    0.941033
H      1.335574    1.659788    1.309437
13

C      2.223258    1.100007   -0.503848
C      1.520023    0.306337    0.069902
C      0.664004   -0.665250    0.771695
C     -0.478908   -0.033725    1.564884
C     -0.774336   -0.820754    0.290269
C     -1.242037    0.010098   -0.912636
H      2.839925    1.796902   -1.007729
H      1.123326   -1.552722    1.254229
H     -0.543416    1.065091    1.403583
H     -1.217892   -1.824098    0.460551
H     -2.351381    0.033233   -0.924910
H     -0.873687    1.057689   -0.890247
H     -0.888879   -0.472810   -1.847295
13

C      2.599831    0.015501    0.063814
C      1.513299   -0.222303   -0.401559
C      0.188562   -0.514709   -0.972778
C     -0.812579   -1.046252    0.047399
C     -0.984582    0.356376   -0.523608
C     -0.703104    1.502331    0.454999
H      3.553207    0.224537    0.472749
H      0.115354   -0.975158   -1.980458
H     -0.453134   -1.103163    1.098506
H     -1.526405   -1.790085   -0.365218
H     -1.798877    0.467684   -1.270596
H     -0.030961    1.212513    1.290702
H     -1.660612    1.872728    0.875951
13

C      3.087401   -0.016915    0.234390
C      1.901525    0.153948    0.368951
C      0.459917    0.360822    0.534813
C     -0.116934    1.281099   -0.531385
C     -0.386711   -0.219788   -0.583535
C     -1.798808   -0.647244   -0.180537
H      4.128281   -0.166936    0.116054
H      0.019950    0.465698    1.549949
H     -0.979871    1.845126   -0.116130
H      0.144510   -0.758432   -1.397811
H     -2.198289   -0.051899    0.669028
H     -2.477972   -0.528734   -1.050176
H     -1.783000   -1.716744    0.114837
13

C      2.799862    0.921827   -0.169479
C      1.763924    0.314939   -0.278873
C      0.502778   -0.425109   -0.413406
C     -0.289782   -0.531727    0.884237
C     -0.742614    0.426337   -0.210359
C     -1.973144   -0.027201   -0.993833
H      3.709083    1.454721   -0.073281
H      0.437935   -1.300558   -1.094329
H      0.156227   -0.026984    1.768797
H     -0.880485   -1.467956    0.980149
H     -0.595012    1.505430    0.013098
H     -1.995545   -1.125077   -1.167280
H     -2.893229    0.281357   -0.455540
17

C     -1.555413   -1.184594   -0.643701
C     -0.804020    0.146017   -0.611533
C     -1.317605    1.010741    0.549875
C      0.728653   -0.099637   -0.672420
C      1.357911   -0.773244    0.541596
C      1.671774    0.683580    0.237391
H     -1.352215   -1.786373    0.267528
H     -1.284484   -1.768914   -1.549001
H     -1.071123    0.685379   -1.545915
H     -1.069981    0.562017    1.533919
H     -0.892030    2.034210    0.486276
H     -2.422507    1.109760    0.484447
H      1.166162   -0.437726   -1.636415
H      2.190681   -1.468641    0.304160
H      0.709264   -0.917852    1.430041
H      2.694551    0.830117   -0.169490
H      1.250381    1.375162    0.993242
17

C     -0.929345   -0.932615    1.065566
C     -0.662903   -0.353482   -0.336226
C     -1.414593    0.968123   -0.526701
C      0.830935   -0.180400   -0.714666
C      1.865615   -0.831580    0.194201
C      1.677554    0.678784    0.210578
H     -0.429890   -1.918019    1.178319
H     -2.019770   -1.091615    1.206994
H     -0.573643   -0.247636    1.862635
H     -1.086424   -1.078605   -1.065176
H     -2.504973    0.813968   -0.379570
H     -1.061432    1.730405    0.199960
H     -1.256202    1.353668   -1.556658
H      1.107886   -0.103962   -1.788522
H      2.768856   -1.096560   -0.395745
H      2.496672    1.238086   -0.289656
H      1.191658    1.051441    1.134667
15

C     -0.509783    1.762452   -0.375734
C     -0.469772    0.432416   -0.216324
C     -1.651883   -0.280921    0.381064
C      0.713281   -0.353187   -0.730895
C      2.052681   -0.015855   -0.080803
C      1.343549   -1.314218    0.262383
H     -1.368793    2.336993   -0.041788
H      0.315607    2.291839   -0.842450
H     -2.570785   -0.038789   -0.194022
H     -1.786690    0.036585    1.436514
H     -1.506788   -1.381426    0.355834
H      0.770518   -0.644378   -1.800535
H      1.939085    0.704721    0.758536
H      1.816457   -2.205680   -0.199214
H      0.913316   -1.330552    1.287433
15

C     -1.165879    1.110000    0.114854
C      0.230091    1.599795   -0.178013
C      1.298557    0.785290   -0.152548
C      1.172841   -0.713651   -0.027671
C     -0.165470   -1.139735    0.588745
C     -1.321491   -0.399118   -0.084897
H     -1.904305    1.658853   -0.507253
H      0.385536    2.666426   -0.306760
H      2.282611    1.206036   -0.335658
H      1.270805   -1.160274   -1.040520
H      2.004387   -1.099108    0.599813
H     -0.163793   -0.916826    1.678733
H     -0.299643   -2.235430    0.460449
H     -2.283905   -0.726338    0.362311
H     -1.340342   -0.635920   -1.171586
15

C      0.781310   -1.271514   -0.081485
C      1.427704   -0.018029    0.537704
C      0.812122    1.241325   -0.009414
C     -0.517214    1.318907   -0.146060
C     -1.364080    0.130632    0.216881
C     -0.738237   -1.152318   -0.355459
H      1.315393   -1.563447   -1.011946
H      1.265447   -0.044982    1.636134
H      2.522450   -0.020185    0.350360
H      1.443029    2.066289   -0.325576
H     -0.971918    2.205264   -0.577598
H     -1.423282    0.051240    1.324124
H     -2.393047    0.262990   -0.180365
H     -1.250600   -2.037193    0.077138
H     -0.909074   -1.168977   -1.454438
13

C     -1.119706    0.916330    0.325731
C      0.265377    1.486397    0.170264
C      1.327474    0.678774    0.078134
C      1.150632   -0.784280    0.008291
C     -0.065895   -1.313002   -0.163899
C     -1.259148   -0.425755   -0.409390
H     -1.332725    0.776135    1.407390
H      0.404908    2.558465    0.216749
H      2.324847    1.098341    0.050492
H      2.013095   -1.431606    0.101513
H     -0.183056   -2.388419   -0.208240
H     -1.340364   -0.230942   -1.499806
H     -2.185440   -0.940439   -0.077229
22

C      3.042867   -0.121076    0.155602
C      1.591111   -0.428178    0.502840
C      0.618830    0.483133   -0.260559
C     -0.866313    0.038045   -0.150317
C     -1.351563    0.087396    1.314249
C     -1.730040    1.004488   -0.986802
C     -1.044274   -1.391062   -0.704749
H      3.708835   -0.798030    0.730018
H      3.220473   -0.286593   -0.927858
H      3.287736    0.930819    0.415451
H      1.450034   -0.316944    1.598778
H      0.730280    1.522690    0.120676
H      0.909576    0.492436   -1.334907
H     -2.441704   -0.122090    1.371868
H     -0.833964   -0.673270    1.935528
H     -1.165810    1.090790    1.754453
H     -1.631927    2.045091   -0.608342
H     -2.803080    0.717848   -0.939398
H     -1.415865    0.990474   -2.053006
H     -0.688361   -1.449842   -1.756011
H     -0.472021   -2.126806   -0.100368
H     -2.114821   -1.689318   -0.681264
22

C      3.025369   -0.089227    0.054854
C      1.618973   -0.161270   -0.528381
C      0.573243    0.038669    0.578551
C     -0.906609    0.100087    0.117403
C     -1.777238    0.333691    1.367372
C     -1.131194    1.271723   -0.860055
C     -1.333706   -1.224044   -0.547446
H      3.175384   -0.896081    0.803738
H      3.190456    0.896765    0.539659
H      3.772297   -0.216262   -0.757025
H      1.484531   -1.152561   -1.009968
H      1.527081    0.631105   -1.298637
H      0.703777   -0.742428    1.360898
H     -2.852897    0.400811    1.094670
H     -1.657761   -0.500729    2.092273
H     -1.486617    1.279786    1.873938
H     -0.731864    2.217228   -0.433521
H     -2.215500    1.409511   -1.062454
H     -0.637173    1.084709   -1.836274
H     -0.792580   -1.384846   -1.503438
H     -1.126414   -2.084157    0.125166
H     -2.421558   -1.212480   -0.775442
22

C      0.919808   -1.646037    1.004955
C      0.887280   -0.199622    0.490052
C      1.977434   -0.016427   -0.582803
C     -0.553792    0.244240    0.039830
C     -1.534532    0.084075    1.225818
C     -1.081754   -0.592269   -1.148827
C     -0.554864    1.735671   -0.369268
H      1.863095   -1.845091    1.557131
H      0.822431   -2.377710    0.175494
H      1.179783    0.443840    1.350205
H      2.074423    1.047371   -0.878972
H      2.962849   -0.327495   -0.174167
H      1.771400   -0.634218   -1.480679
H     -2.549332    0.447386    0.953436
H     -1.631276   -0.981009    1.526032
H     -1.183797    0.665779    2.105609
H     -1.137108   -1.670216   -0.891371
H     -2.106205   -0.263033   -1.428019
H     -0.439984   -0.471119   -2.045539
H     -0.103905    2.363066    0.429537
H      0.009690    1.897455   -1.311142
H     -1.591644    2.095361   -0.547312
22

C     -2.431644    0.022830    1.327596
C     -1.324130    0.401237    0.341449
C     -1.889587    0.392522   -1.085535
C     -0.136950   -0.578271    0.505233
C      1.086985   -0.289737   -0.399462
C      2.157048   -1.368277   -0.183549
C      1.688565    1.099058   -0.136470
H     -3.285012    0.730275    1.251088
H     -2.051364    0.044191    2.371326
H     -0.997936    1.433039    0.592090
H     -2.807258    1.016495   -1.141256
H     -2.142261   -0.642378   -1.401654
H     -1.158464    0.825582   -1.798607
H      0.197583   -0.558983    1.566782
H     -0.500028   -1.609915    0.297520
H      0.781730   -0.346444   -1.465913
H      1.739844   -2.373874   -0.405088
H      3.018272   -1.198702   -0.864755
H      2.522305   -1.354626    0.866064
H      1.914763    1.231132    0.943351
H      0.989986    1.896064   -0.464215
H      2.627553    1.228784   -0.715993
20

C     -2.046660   -0.793526   -1.466565
C     -1.071448   -0.512723   -0.322817
C     -1.783594    0.297639    0.766904
C      0.181465    0.214596   -0.853827
C      1.263242    0.322353    0.198609
C      1.467484    1.476854    0.850018
C      2.092822   -0.882824    0.549154
H     -2.359038    0.147732   -1.968331
H     -1.593850   -1.483289   -2.210399
H     -0.771999   -1.492727    0.109671
H     -2.706075   -0.229168    1.092752
H     -2.060918    1.305444    0.389450
H     -1.127906    0.413026    1.655290
H      0.596647   -0.348093   -1.718507
H     -0.098934    1.221336   -1.237329
H      2.233542    1.554153    1.615938
H      0.869779    2.356415    0.630734
H      1.945195   -1.143074    1.618672
H      3.167041   -0.665663    0.369883
H      1.803206   -1.758458   -0.069302
20

C      1.819405   -0.055132    1.358212
C      1.221275   -0.507916    0.027702
C      2.313411   -0.560718   -1.042515
C      0.116876    0.438819   -0.396010
C     -1.190345    0.273301   -0.093588
C     -2.169817    1.329545   -0.536894
C     -1.690823   -0.932255    0.666218
H      2.218288    0.980053    1.287725
H      1.064599   -0.108571    2.170737
H      0.834938   -1.541561    0.149517
H      3.110567   -1.272728   -0.738652
H      2.769101    0.441906   -1.194365
H      1.884539   -0.909410   -2.006481
H      0.413775    1.341848   -0.925825
H     -3.209171    1.078689   -0.239288
H     -1.902528    2.305057   -0.078080
H     -2.140164    1.428361   -1.642782
H     -1.176428   -1.007850    1.646561
H     -1.506029   -1.854342    0.076296
H     -2.781468   -0.867093    0.860604
20

C      2.425177   -0.540976   -0.063411
C      1.305541    0.382763    0.425608
C      0.171562   -0.345262    1.149396
C     -0.801244    0.098819    0.053943
C     -1.402458   -1.066989   -0.748109
C     -1.871896    1.053134    0.598677
C      0.339762    0.817740   -0.676185
H      2.017782   -1.391731   -0.651331
H      3.127665    0.033475   -0.703002
H      2.984291   -0.941398    0.808162
H      1.685667    1.241783    1.020406
H      0.317741   -1.448988    1.164459
H     -2.092484   -1.654804   -0.106177
H     -1.969598   -0.675098   -1.618971
H     -0.606344   -1.745835   -1.123151
H     -1.410379    1.871819    1.192582
H     -2.441833    1.503646   -0.241550
H     -2.577462    0.499436    1.254047
H      0.575578    0.384850   -1.674376
H      0.222930    1.923618   -0.711924
20

C     -1.211956    0.473910   -1.530484
C     -0.821982   -0.015466   -0.132514
C     -2.038877   -0.425376    0.711554
C      0.285053   -1.076412   -0.165348
C      1.226035   -0.110831    0.557551
C      2.446343    0.294695   -0.274011
C      0.125299    0.951133    0.588982
H     -1.733317   -0.328915   -2.093837
H     -1.867006    1.368329   -1.462404
H     -1.725168   -0.775399    1.718832
H     -2.590053   -1.248162    0.208601
H     -2.723120    0.440559    0.836862
H      0.620022   -1.342120   -1.193499
H      0.061989   -1.974736    0.451975
H      1.500697   -0.467752    1.575079
H      2.145552    0.646945   -1.284566
H      2.993807    1.110638    0.242823
H      3.126691   -0.575658   -0.384523
H      0.367393    1.864180   -0.000624
H     -0.187402    1.190439    1.629550
20

C      1.604920    0.081168    1.339288
C      0.736103    0.350655    0.112261
C      1.463566    0.550632   -1.226244
C     -0.460730    1.272170    0.370951
C     -0.693162   -0.221526    0.114153
C     -1.142718   -1.041229    1.334125
C     -1.337160   -0.584039   -1.233472
H      2.180610   -0.857104    1.197435
H      2.301402    0.928393    1.510943
H      2.386741    1.145544   -1.063712
H      0.849652    1.090489   -1.975829
H      1.750215   -0.438817   -1.639439
H     -0.582766    1.599445    1.426250
H     -0.734167    1.950755   -0.465004
H     -0.769695   -2.081827    1.234187
H     -2.251652   -1.063071    1.380491
H     -0.773066   -0.620491    2.293064
H     -1.253408    0.227290   -1.985023
H     -2.418596   -0.788616   -1.088669
H     -0.856088   -1.499820   -1.635756
22

C     -2.331405    0.711391    0.545649
C     -0.851782    0.989918    0.269577
C      0.072798   -0.257409    0.178485
C     -0.122370   -1.163265    1.416055
C     -0.243331   -1.078574   -1.092181
C      1.561540    0.204915    0.174619
C      1.979879    1.081841   -1.012121
H     -2.468401    0.284311    1.559786
H     -2.757851    0.027411   -0.216140
H     -2.891936    1.668600    0.506913
H     -0.777979    1.606683   -0.651093
H     -1.131966   -1.625810    1.426855
H      0.009227   -0.578930    2.352443
H      0.616491   -1.993854    1.415630
H     -0.269752   -0.430225   -1.992997
H     -1.231892   -1.577536   -1.010159
H      0.522203   -1.869335   -1.246165
H      1.771654    0.771857    1.108808
H      2.227198   -0.686788    0.182055
H      1.833229    0.551725   -1.974994
H      1.424196    2.041113   -1.020006
H      3.060252    1.321962   -0.921020
20

C      0.240847    1.643491    1.402245
C      0.152018    0.528411    0.345469
C      0.310172    1.189864   -1.043513
C      1.281915   -0.456073    0.632447
C      1.716579   -1.375340   -0.239893
C     -1.242106   -0.143736    0.508513
C     -1.525742   -1.328326   -0.420765
H      1.226626    2.157460    1.371785
H     -0.568036    2.395781    1.275527
H      1.293158    1.703656   -1.117671
H      0.253074    0.453080   -1.868548
H     -0.489948    1.943419   -1.208816
H      1.787988   -0.408113    1.594019
H      2.532995   -2.035298    0.034863
H      1.274553   -1.488728   -1.222829
H     -1.355907   -0.500769    1.556524
H     -2.036765    0.616493    0.338506
H     -0.864192   -2.185707   -0.183131
H     -2.572999   -1.664763   -0.268424
H     -1.414228   -1.044803   -1.486309
18

C     -2.565089    1.420823    0.805980
C     -1.603842    0.747522    0.527733
C     -0.427793   -0.075694    0.186572
C     -0.264843   -1.134563    1.286336
C     -0.691697   -0.756336   -1.169612
C      0.807307    0.863649    0.131110
C      2.126864    0.181625   -0.247113
H     -3.408439    2.011566    1.050056
H      0.546477   -1.853308    1.047325
H     -1.205190   -1.709881    1.434372
H      0.110520   -1.483437   -1.415180
H     -1.652280   -1.316461   -1.145853
H     -0.747541   -0.000545   -1.982920
H      0.620960    1.676294   -0.606530
H      0.944663    1.349778    1.123110
H      2.072975   -0.255881   -1.264839
H      2.939212    0.938726   -0.247634
H      2.397736   -0.603878    0.487086
16

C     -0.878155    2.371125    0.681867
C     -0.581098    1.236753    0.399722
C     -0.217877   -0.150065    0.054724
C     -0.069619   -0.962782    1.346001
C     -1.334682   -0.755270   -0.811478
C      1.091661   -0.154056   -0.711135
C      2.234231    0.307124   -0.185436
H     -1.138653    3.366435    0.929411
H     -1.012036   -0.963386    1.936175
H      0.229833   -2.010831    1.127774
H     -1.090843   -1.805242   -1.083752
H     -2.302676   -0.752889   -0.264006
H     -1.462778   -0.171700   -1.749562
H      1.118758   -0.547726   -1.724200
H      2.264899    0.709601    0.822495
H      3.149036    0.282907   -0.768600
22

C     -3.462198    0.064660   -0.842016
C     -2.265631   -0.684362   -0.267992
C     -1.018710    0.200139   -0.211889
C      0.191597   -0.610517    0.272263
C      1.450775    0.260908    0.482214
C      2.004787    0.799429   -0.845838
C      2.534417   -0.548160    1.207012
H     -3.710128    0.941464   -0.206624
H     -3.240208    0.406374   -1.874921
H     -4.339045   -0.614857   -0.874851
H     -2.516675   -1.062978    0.746850
H     -1.202371    1.052384    0.478664
H     -0.819305    0.596904   -1.229553
H      0.410037   -1.423023   -0.455988
H     -0.075647   -1.088996    1.240940
H      1.187924    1.126627    1.130018
H      2.952208    1.352768   -0.670942
H      2.204143   -0.032535   -1.554919
H      1.290546    1.509987   -1.309897
H      3.429827    0.083707    1.389787
H      2.158790   -0.899339    2.191811
H      2.834865   -1.430584    0.601752
22

C     -3.097843   -0.329065   -0.270783
C     -2.218079    0.910375   -0.119040
C     -0.801991    0.692621   -0.662419
C      0.046842   -0.245729    0.203799
C      1.524400   -0.230266   -0.234643
C      2.170154    1.140408    0.017225
C      2.308081   -1.323072    0.502662
H     -4.133980   -0.087391    0.046859
H     -3.120878   -0.661181   -1.330523
H     -2.722685   -1.155800    0.367642
H     -2.174584    1.211288    0.949810
H     -2.680968    1.745823   -0.685920
H     -0.827314    0.349240   -1.719799
H     -0.352799   -1.278298    0.106067
H     -0.027395    0.055494    1.272030
H      1.579637   -0.450189   -1.324282
H      2.124118    1.403601    1.095916
H      3.233997    1.127175   -0.302633
H      1.650500    1.928716   -0.567098
H      2.280861   -1.152359    1.600554
H      1.872920   -2.321587    0.283948
H      3.367004   -1.329806    0.166510
22

C     -3.197309   -0.184554   -0.638484
C     -2.143428    0.393383    0.301852
C     -0.738644   -0.077407   -0.083823
C      0.300928    0.528623    0.868608
C      1.773290    0.272466    0.489094
C      2.164308    0.995997   -0.804328
C      2.108335   -1.222304    0.412025
H     -3.186011   -1.294554   -0.595150
H     -4.203491    0.172457   -0.333364
H     -3.005435    0.144076   -1.682175
H     -2.375013    0.072439    1.341093
H     -2.190490    1.503576    0.257387
H     -0.696399   -1.186469   -0.027598
H     -0.529931    0.239552   -1.126716
H      0.112279    0.183550    1.909128
H      2.390629    0.709297    1.304760
H      1.861220    2.063598   -0.753160
H      3.266121    0.954360   -0.940407
H      1.688665    0.525520   -1.690100
H      1.791435   -1.735211    1.345020
H      1.604081   -1.700475   -0.454224
H      3.204860   -1.357920    0.296444
22

C     -2.322688   -1.312831    0.410294
C     -1.268136   -0.206573    0.352335
C     -1.967631    1.155227    0.264141
C     -0.308522   -0.453427   -0.835601
C      0.842240    0.565494   -0.968970
C      1.751946    0.686550    0.266231
C      2.451237   -0.624512    0.623004
H     -1.848707   -2.300890    0.592904
H     -2.920001   -1.349499   -0.526298
H     -0.702224   -0.251854    1.306512
H     -2.478382    1.272209   -0.715810
H     -2.722416    1.250385    1.074164
H     -1.235509    1.978862    0.394073
H      0.123862   -1.473983   -0.753801
H     -0.892069   -0.434983   -1.782525
H      1.466220    0.273074   -1.841655
H      0.425228    1.566803   -1.207151
H      1.178556    1.057861    1.141028
H      2.532175    1.447042    0.046191
H      2.979763   -1.036662   -0.262728
H      3.196118   -0.439073    1.425287
H      1.718940   -1.369222    0.998375
20

C      3.300770    0.152229    0.117573
C      2.432163   -0.216723    1.063208
C      1.002924    0.243272    1.046595
C      0.206579   -0.404790   -0.091660
C     -1.311902   -0.182054    0.068425
C     -1.701007    1.287622   -0.153830
C     -2.082147   -1.077464   -0.910867
H      2.994020    0.793239   -0.703415
H      4.330502   -0.186731    0.164277
H      2.768514   -0.843448    1.882709
H      0.964729    1.351873    0.990637
H      0.551800   -0.005248   -1.070758
H      0.411158   -1.498608   -0.078002
H     -1.611349   -0.473198    1.100069
H     -2.804123    1.405882   -0.094541
H     -1.257008    1.934239    0.630593
H     -1.358266    1.638474   -1.150941
H     -1.846307   -2.146586   -0.722156
H     -3.176794   -0.941501   -0.777940
H     -1.814256   -0.830477   -1.960882
20

C      3.192710    0.069869    0.678893
C      2.420195   -0.541726   -0.224116
C      1.027419   -0.066316   -0.525835
C      0.087477   -0.384708    0.645387
C     -1.407858   -0.115359    0.382754
C     -1.685144    1.348827    0.019702
C     -1.984317   -1.067149   -0.671366
H      2.830201    0.929289    1.234760
H      4.200332   -0.288333    0.862914
H      2.821821   -1.384751   -0.778877
H      1.046023    1.026222   -0.727092
H      0.680073   -0.585960   -1.441798
H      0.412111    0.159377    1.559438
H     -1.939595   -0.327141    1.336528
H     -2.780731    1.531362   -0.002387
H     -1.235801    2.024107    0.778710
H     -1.269252    1.598222   -0.979343
H     -1.722808   -2.117979   -0.423152
H     -3.091741   -0.980660   -0.690883
H     -1.601117   -0.827194   -1.685145
20

C     -0.933165    1.833763   -0.986613
C     -1.242696    0.343183   -0.827664
C     -2.329201    0.113731    0.231268
C      0.035681   -0.483492   -0.565002
C      0.744899   -0.160487    0.762871
C      1.967820   -1.017625    0.943741
C      3.072235   -0.830953    0.214809
H     -1.811199    2.369263   -1.406564
H     -0.656556    2.298775   -0.017063
H     -1.653261   -0.007233   -1.800485
H     -3.280481    0.583568   -0.098153
H     -2.041783    0.560903    1.205968
H     -2.509474   -0.973654    0.368771
H     -0.230840   -1.563699   -0.576854
H      0.740581   -0.312986   -1.408444
H      0.059238   -0.361694    1.612023
H      1.043764    0.908289    0.802126
H      1.963683   -1.787976    1.709373
H      3.117309   -0.055145   -0.543507
H      3.943447   -1.456531    0.379398
18

C      2.945558   -1.135953    1.271841
C      2.425047   -0.266404    0.619139
C      1.790356    0.792941   -0.175412
C      0.551778    0.294068   -0.929865
C     -0.607269   -0.162387   -0.011021
C     -1.705219   -0.830436   -0.848600
C     -1.201001    1.007549    0.788027
H      3.402001   -1.899601    1.844898
H      1.571764    1.679507    0.453964
H      0.864229   -0.550083   -1.583596
H      0.198740    1.108976   -1.598397
H     -0.229532   -0.921747    0.708304
H     -2.524648   -1.192748   -0.191551
H     -1.293249   -1.706100   -1.394290
H     -2.126542   -0.113515   -1.586022
H     -1.521352    1.825852    0.107998
H     -0.459363    1.404286    1.511195
H     -2.081300    0.665795    1.373401
18

C      3.268871   -0.795314   -0.195870
C      2.438211    0.075924   -0.261992
C      1.427489    1.135538   -0.341300
C      0.095349    0.574459   -0.845079
C     -0.632884   -0.338604    0.160127
C     -1.647061   -1.203699   -0.591567
C     -1.336065    0.474131    1.255876
H      3.997668   -1.560405   -0.137757
H      1.311586    1.617614    0.650670
H      1.786701    1.903093   -1.058261
H     -0.569525    1.396523   -1.190404
H      0.098707   -1.023246    0.642406
H     -2.151565   -1.901851    0.110215
H     -1.130552   -1.807727   -1.368171
H     -2.416618   -0.569997   -1.083293
H     -2.067258    1.183529    0.812002
H     -0.597334    1.046361    1.853711
H     -1.875720   -0.206326    1.948700
18

C      3.238827   -0.646779    0.124141
C      2.365451    0.069895   -0.296447
C      1.300828    0.942457   -0.809121
C      0.078867    0.949797    0.122636
C     -0.664163   -0.403407    0.171115
C     -1.264244   -0.749139   -1.194162
C     -1.764320   -0.372480    1.238111
H      4.005134   -1.276164    0.493620
H      1.703347    1.974763   -0.883469
H      1.015625    0.614263   -1.830559
H     -0.622490    1.742438   -0.220063
H      0.413027    1.230254    1.146653
H      0.054134   -1.205350    0.448489
H     -1.716682   -1.763579   -1.180937
H     -2.026399   -0.000430   -1.499906
H     -2.510246    0.419369    1.010504
H     -1.322640   -0.172392    2.237635
H     -2.284055   -1.353513    1.281772
20

C     -2.361323    0.462164    1.470330
C     -1.829107    0.312031    0.252092
C     -2.554870   -0.485990   -0.795526
C     -0.486394    0.917413   -0.045959
C      0.620235   -0.136675   -0.022752
C      1.989473    0.524802   -0.197538
C      3.110488   -0.509742   -0.159298
H     -1.839595    1.025191    2.238741
H     -3.324485    0.023403    1.713817
H     -1.976858   -0.512612   -1.743368
H     -2.700529   -1.528309   -0.441054
H     -3.545152   -0.026756   -0.999663
H     -0.511549    1.447254   -1.022920
H      0.593534   -0.673666    0.951071
H      0.452182   -0.870936   -0.841132
H      2.153567    1.264765    0.616233
H      2.026421    1.058850   -1.172239
H      3.112798   -1.040578    0.816569
H      4.089385   -0.002019   -0.289466
H      2.981778   -1.248591   -0.978845
20

C     -1.786333    1.238042    0.906442
C     -1.484974   -0.007876    0.512054
C     -2.324051   -0.675239   -0.543417
C     -0.291038   -0.729390    1.091142
C      0.828444   -0.862647    0.055662
C      1.521171    0.471922   -0.235438
C      2.585709    0.297982   -1.311877
H     -2.636535    1.763973    0.482131
H     -1.186774    1.749969    1.653003
H     -1.942742   -1.693947   -0.767450
H     -3.373774   -0.761392   -0.191394
H     -2.299111   -0.076556   -1.478526
H      0.094408   -0.221285    2.002957
H     -0.612715   -1.747018    1.399829
H      1.576093   -1.602344    0.416839
H      1.997023    0.859971    0.691288
H      0.776750    1.215412   -0.591879
H      3.367602   -0.413672   -0.970640
H      3.064930    1.277198   -1.522856
H      2.125916   -0.083104   -2.248776
20

C     -1.925323    0.744479   -1.213072
C     -1.514753   -0.301004   -0.479751
C     -2.536741   -1.230153    0.118750
C     -0.037779   -0.550344   -0.273535
C      0.556476    0.465074    0.710418
C      2.014082    0.136600    1.050432
C      2.980606    0.492794   -0.076222
H     -2.983340    0.930706   -1.372654
H     -1.208730    1.424535   -1.663957
H     -2.054965   -2.034288    0.713127
H     -3.213684   -0.660652    0.790241
H     -3.136281   -1.700201   -0.689294
H      0.125683   -1.576391    0.121783
H      0.479692   -0.488579   -1.254831
H      0.482697    1.495855    0.299522
H     -0.031864    0.431627    1.653585
H      2.311762    0.686922    1.969164
H      2.778964   -0.125930   -0.974198
H      4.019657    0.290083    0.257086
H      2.893842    1.568868   -0.337503
18

C      3.039327   -0.866122   -0.320749
C      2.310679    0.154034   -0.779090
C      0.817734    0.054487   -0.890195
C      0.146107    0.146266    0.481256
C     -1.347408   -0.030813    0.346811
C     -1.854901   -1.228971    0.020694
C     -2.280286    1.124249    0.595153
H      2.567240   -1.790152   -0.000467
H      4.119756   -0.780800   -0.267092
H      2.810119    1.057053   -1.117421
H      0.441262    0.869440   -1.545995
H      0.384849    1.131297    0.937786
H      0.544528   -0.641332    1.157536
H     -1.203363   -2.079765   -0.155961
H     -2.927414   -1.372157   -0.073066
H     -2.888880    1.316796   -0.313694
H     -1.722153    2.051337    0.842006
H     -2.957195    0.885153    1.442500
18

C      3.029315   -0.595580    0.322452
C      2.210696   -0.522931   -0.731417
C      0.876432    0.162061   -0.650153
C     -0.103804   -0.663688    0.183432
C     -1.485185   -0.073135    0.150974
C     -2.420619   -0.632496   -0.624883
C     -1.807622    1.155547    0.955622
H      3.993847   -1.083674    0.228011
H      2.747356   -0.168255    1.280018
H      2.532226   -0.941132   -1.680821
H      0.474032    0.272826   -1.680359
H      0.999736    1.177081   -0.213052
H      0.244623   -0.761861    1.234329
H     -2.194976   -1.512523   -1.220102
H     -3.422720   -0.216786   -0.674467
H     -2.114611    1.979794    0.277640
H     -0.923842    1.488896    1.539637
H     -2.634885    0.935856    1.663151
16

C      3.821042   -0.019497   -0.188635
C      2.667808   -0.321888   -0.010133
C      1.264641   -0.690652    0.207142
C      0.330051    0.405366   -0.300873
C     -1.110538   -0.021998   -0.150366
C     -1.606181   -0.998606   -0.925057
C     -2.008089    0.653231    0.852004
H      4.833372    0.246170   -0.345404
H      1.095996   -0.870149    1.290572
H      0.521624    1.342031    0.266841
H      0.537538    0.614617   -1.373659
H     -2.642131   -1.311170   -0.831744
H     -0.981563   -1.496136   -1.661128
H     -1.462110    1.428610    1.428747
H     -2.858568    1.138494    0.328001
H     -2.402891   -0.098424    1.567978
16

C      2.664624   -0.507993    1.013515
C      2.015487   -0.371948    0.006790
C      1.223667   -0.205304   -1.216989
C     -0.204253   -0.710058   -1.006845
C     -0.986931    0.137353   -0.036469
C     -1.397874    1.366737   -0.377977
C     -1.332099   -0.423071    1.312556
H      3.233763   -0.627417    1.897639
H      1.699826   -0.797766   -2.025881
H      1.223952    0.863355   -1.519209
H     -0.741821   -0.780931   -1.977202
H     -1.970188    1.973969    0.317085
H     -1.169447    1.777961   -1.356634
H     -0.927410   -1.451225    1.426021
H     -2.435225   -0.460902    1.435280
H     -0.896072    0.217240    2.108320
20

C     -1.239175    1.393632    0.578258
C     -1.446405   -0.114863    0.415315
C     -2.877906   -0.383211   -0.056837
C     -0.429921   -0.725477   -0.569118
C      0.972556   -0.661153   -0.024026
C      1.877393    0.202768   -0.504904
C      3.255454    0.275661    0.075399
H     -1.281806    1.914549   -0.402453
H     -0.274160    1.612964    1.081944
H     -1.322552   -0.594483    1.411729
H     -3.605211    0.048542    0.663850
H     -3.052812    0.068262   -1.057376
H     -3.062302   -1.476974   -0.119579
H     -0.674741   -1.797010   -0.734228
H     -0.499576   -0.216860   -1.556793
H      1.232279   -1.305595    0.811856
H      1.617965    0.869455   -1.322763
H      3.765869   -0.704270   -0.035998
H      3.199356    0.543465    1.151701
H      3.845694    1.050597   -0.456882
20

C     -0.501750   -0.735989    1.555633
C     -1.023675   -1.001294    0.141853
C     -2.374850   -0.309204   -0.083768
C      0.019791   -0.617627   -0.927606
C      0.338134    0.861957   -0.944312
C      1.471591    1.404609   -0.464897
C      2.599579    0.606814    0.121778
H     -0.385513    0.352212    1.746562
H     -1.186776   -1.172196    2.313509
H     -1.192371   -2.097268    0.054635
H     -3.128731   -0.710491    0.626735
H     -2.293423    0.787195    0.073529
H     -2.736368   -0.500461   -1.116511
H      0.933051   -1.231643   -0.781473
H     -0.375263   -0.892819   -1.929198
H     -0.416703    1.533254   -1.343151
H      1.582510    2.484329   -0.506523
H      2.243988    0.017397    0.992103
H      3.400695    1.293837    0.465847
H      3.026083   -0.072613   -0.645651
18

C     -1.148222    0.634190    1.367986
C     -1.200874    0.339507   -0.134240
C     -2.638319    0.023248   -0.562022
C     -0.261818   -0.823525   -0.498935
C      1.142900   -0.475999   -0.243891
C      2.295094   -0.190212   -0.033842
C      3.692750    0.157604    0.221792
H     -1.507518   -0.234331    1.960956
H     -1.751682    1.533648    1.614538
H     -0.872712    1.251937   -0.680583
H     -2.683513   -0.142372   -1.659620
H     -3.307968    0.874478   -0.314271
H     -3.010088   -0.888275   -0.046088
H     -0.364124   -1.065621   -1.578488
H     -0.522375   -1.731123    0.087295
H      4.096779    0.724678   -0.641942
H      3.757057    0.781969    1.136613
H      4.284635   -0.769800    0.364753
20

C     -2.285352    0.939485    1.111522
C     -1.647510   -0.350827    0.595098
C     -2.167199   -0.693012   -0.804118
C     -0.137832   -0.274436    0.624736
C      0.560134    0.617389   -0.099224
C      2.061521    0.673943   -0.041603
C      2.689118   -0.531989   -0.735071
H     -2.051177    1.804730    0.455513
H     -1.953450    1.152886    2.150050
H     -1.959801   -1.170700    1.278039
H     -3.269339   -0.830151   -0.775353
H     -1.930292    0.115835   -1.527783
H     -1.707504   -1.639791   -1.160249
H      0.394234   -0.976151    1.261699
H      0.041773    1.337812   -0.724927
H      2.398431    0.719329    1.016742
H      2.407096    1.598413   -0.552070
H      2.404940   -1.472058   -0.216332
H      3.795269   -0.438010   -0.713453
H      2.356941   -0.582698   -1.794124
20

C     -1.496245    1.211433    1.081287
C     -1.533226   -0.152441    0.393464
C     -1.548998   -0.019086   -1.133142
C     -0.420090   -1.059791    0.879391
C      0.907566   -0.827186    0.811154
C      1.571299    0.380813    0.199985
C      2.256655    0.005663   -1.109323
H     -1.531561    1.090991    2.185140
H     -2.357088    1.834935    0.758454
H     -2.493643   -0.634432    0.682335
H     -2.492070    0.471081   -1.456530
H     -0.703312    0.592073   -1.504103
H     -1.503175   -1.023415   -1.606044
H     -0.730270   -1.991881    1.344248
H      1.569156   -1.596233    1.200588
H      2.340556    0.751449    0.910386
H      0.870387    1.217474    0.024048
H      3.040398   -0.760729   -0.927755
H      2.735753    0.905294   -1.549851
H      1.517907   -0.396013   -1.834640
18

C     -1.592177    1.107108    1.324989
C     -1.469565    0.601236   -0.113112
C     -2.041545   -0.813657   -0.258162
C     -0.041104    0.676281   -0.591673
C      0.949988   -0.023439   -0.027526
C      2.329550    0.079181   -0.529455
C      3.317823   -0.614494    0.027740
H     -1.074533    0.432562    2.039894
H     -2.660292    1.201195    1.615333
H     -2.074817    1.277595   -0.755550
H     -1.943341   -1.158400   -1.309806
H     -3.119926   -0.815687    0.008763
H     -1.511986   -1.529502    0.405902
H      0.176087    1.327461   -1.431043
H      0.741071   -0.677031    0.811325
H      2.552935    0.729041   -1.367582
H      4.325423   -0.524526   -0.356883
H      3.136410   -1.274925    0.866858
18

C     -1.154966    0.974921    1.012976
C     -1.040148    0.105941   -0.240083
C     -2.411540   -0.465581   -0.616065
C     -0.042962   -1.006243   -0.011919
C      1.281126   -0.824400    0.097302
C      1.944524    0.492240    0.009371
C      3.264482    0.601424    0.130286
H     -1.534376    0.387205    1.876685
H     -1.818327    1.846624    0.828686
H     -0.696306    0.736307   -1.088863
H     -2.328391   -1.080045   -1.538160
H     -3.128703    0.359655   -0.813891
H     -2.812985   -1.100324    0.203529
H     -0.411657   -2.024141    0.051432
H      1.897864   -1.702098    0.254775
H      1.369599    1.393713   -0.155637
H      3.735279    1.573680    0.063226
H      3.887489   -0.268878    0.296362
16

C      3.770595    0.106152   -0.220904
C      2.592160   -0.011565    0.004204
C      1.186581   -0.152346    0.273701
C      0.279993    0.175965   -0.651538
C     -1.206335    0.048139   -0.420449
C     -1.614146   -1.405434   -0.175930
C     -1.679474    0.946118    0.726423
H      4.805096    0.209542   -0.418650
H      0.881402   -0.529505    1.240965
H      0.612170    0.551867   -1.613279
H     -1.724303    0.385592   -1.344609
H     -1.164895   -1.806495    0.757486
H     -1.326001   -2.044259   -1.037987
H     -1.235630    0.627320    1.693596
H     -1.391098    2.000746    0.528661
H     -2.786115    0.898161    0.812599
16

C      2.593040    0.828972    0.220851
C      1.948258   -0.132340   -0.117124
C      1.190075   -1.286912   -0.524755
C     -0.143962   -1.384188   -0.424955
C     -1.082486   -0.327303    0.117950
C     -0.824941   -0.044092    1.598878
C     -1.074822    0.955337   -0.722130
H      3.157657    1.673228    0.517820
H      1.740174   -2.123717   -0.935625
H     -0.597839   -2.307043   -0.766946
H     -2.109524   -0.749240    0.050548
H      0.120648    0.512713    1.757745
H     -1.663773    0.541254    2.032230
H     -0.119456    1.507814   -0.617694
H     -1.234928    0.710949   -1.794016
H     -1.898122    1.624568   -0.392778
18

C     -2.186322   -0.745788    1.504192
C     -1.740105   -0.523103    0.062586
C     -2.279286    0.806128   -0.466148
C     -0.272574   -0.528622   -0.003104
C      0.932056   -0.531519   -0.058189
C      2.397011   -0.532915   -0.125180
C      2.923008    0.881821   -0.332067
H     -1.802034   -1.716224    1.886198
H     -3.295256   -0.752071    1.571484
H     -2.127386   -1.350496   -0.570333
H     -1.952126    0.961674   -1.516912
H     -1.913999    1.653830    0.153878
H     -3.390149    0.801595   -0.447922
H      2.721444   -1.178483   -0.968378
H      2.803462   -0.947236    0.821465
H      2.533800    1.303897   -1.283640
H      2.616306    1.535875    0.512484
H      4.032149    0.861638   -0.380403
16

C     -1.795957   -1.687962   -0.134294
C     -1.429508   -0.317372    0.426880
C     -1.980717    0.804104   -0.455499
C      0.030921   -0.207176    0.535332
C      1.230054   -0.115075    0.623536
C      2.659704   -0.004892    0.727747
C      3.355488    0.685546   -0.168666
H     -1.404594   -1.819216   -1.166666
H     -2.897667   -1.830348   -0.131254
H     -1.863412   -0.222886    1.445210
H     -1.557907    0.742844   -1.481982
H     -1.724488    1.794084   -0.020273
H     -3.087379    0.729714   -0.518768
H      3.169727   -0.492421    1.548364
H      4.431312    0.759931   -0.077633
H      2.864423    1.181126   -0.997748
14

C      4.164167    0.800178    0.244543
C      2.977915    0.630399    0.115437
C      1.588631    0.431524   -0.035717
C      0.401931    0.261431   -0.164566
C     -1.044051    0.054131   -0.322823
C     -1.788258    0.782302    0.792063
C     -1.362297   -1.440859   -0.292140
H      5.205795    0.949255    0.357912
H     -1.357779    0.472684   -1.303419
H     -2.885050    0.642432    0.683448
H     -1.564823    1.870723    0.764325
H     -2.450977   -1.602360   -0.444068
H     -0.818760   -1.965277   -1.107532
H     -1.066444   -1.886562    0.682667
20

C      2.949095    0.779550    0.509923
C      1.647584   -0.008680    0.583362
C      1.003455   -0.165582   -0.793971
C     -0.324625   -0.868435   -0.681856
C     -1.444008   -0.301056   -0.180347
C     -1.459867    1.124777    0.319062
C     -2.708194   -1.119869   -0.134915
H      3.683822    0.253010   -0.135715
H      2.758106    1.794854    0.102912
H      3.374351    0.881164    1.529946
H      1.836969   -1.006403    1.036214
H      0.870064    0.824147   -1.280605
H      1.675315   -0.772403   -1.439080
H     -0.374117   -1.889226   -1.053437
H     -2.468687    1.419344    0.675481
H     -0.754293    1.241006    1.167342
H     -1.174117    1.818217   -0.499177
H     -2.547556   -2.023050    0.491212
H     -3.555140   -0.545794    0.295053
H     -2.988159   -1.435571   -1.162311
20

C      3.029789    0.551475    0.830672
C      1.540394    0.249860    0.942140
C      1.083424   -0.627350   -0.222715
C     -0.345041   -1.075184   -0.064841
C     -1.416856   -0.367727   -0.483463
C     -1.271140    0.953297   -1.201588
C     -2.791747   -0.934912   -0.241049
H      3.240892    1.110636   -0.105876
H      3.614977   -0.392959    0.834410
H      3.349436    1.171968    1.694298
H      1.353225   -0.280212    1.901234
H      0.975563    1.205291    0.951059
H      1.273065   -0.155733   -1.210431
H     -0.499809   -2.035383    0.419458
H     -2.259444    1.380782   -1.469982
H     -0.750870    1.688193   -0.554976
H     -0.697244    0.813527   -2.141358
H     -2.956054   -1.066082    0.849535
H     -2.885218   -1.921124   -0.743328
H     -3.587341   -0.268363   -0.634108
20

C      1.138898    1.795115    0.572008
C      0.798224    0.303138    0.680305
C      1.592793   -0.573638   -0.289536
C      0.296678   -1.040164   -0.947368
C     -0.517749   -0.164829    0.017217
C     -1.345057    0.915430   -0.709065
C     -1.393690   -0.994791    0.972514
H      2.098657    2.000025    1.091013
H      1.226001    2.129943   -0.483053
H      0.906743   -0.050265    1.730490
H      2.123190   -1.402168    0.228886
H      2.241674   -0.007171   -0.993616
H      0.132610   -2.132989   -0.817491
H      0.234398   -0.721236   -2.011392
H     -1.722437    1.661359    0.022196
H     -2.214688    0.447936   -1.218067
H     -0.746565    1.440404   -1.482827
H     -2.220495   -1.479088    0.410506
H     -1.829292   -0.336776    1.754190
H     -0.799892   -1.790235    1.473094
20

C      1.851654   -1.036538    0.082104
C      0.914194    0.062950    0.599237
C      1.091964    1.390927   -0.136353
C     -0.361047    1.343589   -0.597126
C     -0.554796    0.009777    0.136746
C     -0.956833   -1.143028   -0.805360
C     -1.508096    0.122827    1.334982
H      2.880055   -0.832867    0.445908
H      1.876738   -1.077615   -1.027135
H      1.530730   -2.020332    0.482799
H      1.282672    2.225192    0.572208
H      1.808123    1.356233   -0.987173
H     -0.441251    1.266743   -1.704123
H     -0.960663    2.183001   -0.180007
H     -0.874023   -2.116376   -0.277249
H     -2.009493   -1.010312   -1.134140
H     -0.322076   -1.170090   -1.715585
H     -1.210745    0.958466    2.005479
H     -2.545273    0.307357    0.982486
H     -1.491834   -0.819903    1.922304
20

C      1.946662   -0.476410    0.628481
C      0.926020   -0.295750   -0.505303
C      0.989453    1.077098   -1.176590
C     -0.470889    1.328426   -0.812363
C     -0.545287   -0.034464   -0.110958
C     -1.521198   -1.004801   -0.799758
C     -0.846433    0.090752    1.396583
H      1.961509    0.392759    1.318568
H      2.961823   -0.586953    0.192697
H      1.711201   -1.397521    1.201385
H      1.035386   -1.100715   -1.265754
H      1.648057    1.786942   -0.628116
H     -1.103026    1.403459   -1.723880
H     -0.590714    2.201153   -0.132407
H     -1.414326   -2.020839   -0.363867
H     -2.567841   -0.661505   -0.655840
H     -1.322464   -1.067917   -1.891687
H     -0.215509    0.866363    1.878930
H     -1.907753    0.382286    1.546652
H     -0.674669   -0.882364    1.903228
20

C      1.630966   -0.771965    0.868632
C      0.808880   -0.411837   -0.377548
C      1.185201    0.943523   -0.975233
C     -0.235154    1.454140   -0.751754
C     -0.632153    0.100476   -0.155117
C     -1.655728   -0.616237   -1.048314
C     -1.123241    0.199033    1.303980
H      1.705308    0.078878    1.577759
H      2.659685   -1.052601    0.559316
H      1.172314   -1.642234    1.382786
H      0.871704   -1.221939   -1.139204
H      1.425032    0.875267   -2.058013
H      1.939688    1.513644   -0.388741
H     -0.234959    2.269395    0.005688
H     -1.793987   -1.662027   -0.700457
H     -2.634701   -0.092690   -1.006822
H     -1.318130   -0.637732   -2.107469
H     -0.442156    0.815056    1.927261
H     -2.126378    0.675186    1.334356
H     -1.202193   -0.815334    1.748894
20

C     -1.367585   -0.456227   -1.553052
C     -0.609206    0.034436   -0.314796
C     -1.403298   -0.227737    0.980439
C     -0.157695    1.494396   -0.454617
C      1.302612    1.051607   -0.461360
C      0.870783   -0.410294   -0.333758
C      1.418668   -1.096952    0.925816
H     -2.347769    0.058403   -1.644913
H     -1.524349   -1.554744   -1.503548
H     -0.904798    0.219969    1.865422
H     -1.518711   -1.320062    1.143704
H     -2.414712    0.224609    0.900829
H     -0.452839    1.969197   -1.416911
H     -0.394415    2.128740    0.428217
H      1.863381    1.441255    0.417023
H      1.802440    1.261782   -1.432231
H      1.137998   -0.988881   -1.247407
H      1.291178   -0.467407    1.831153
H      2.503387   -1.292886    0.792897
H      0.904929   -2.069205    1.077094
20

C      2.858884    0.019745    0.792581
C      1.648370   -0.371194   -0.041491
C      0.434555    0.478296    0.368757
C     -0.590296   -0.218713    1.268567
C     -0.939559    0.087014   -0.187694
C     -1.918346    1.244943   -0.406835
C     -1.054497   -1.120275   -1.130975
H      3.130771    1.081441    0.610177
H      3.724071   -0.625799    0.532180
H      1.873048   -0.186402   -1.113568
H      1.473062   -1.458255    0.098404
H      0.579992    1.562269    0.570830
H     -1.047714    0.455037    2.024114
H     -0.376804   -1.282865    1.505419
H     -2.959903    0.875755   -0.300850
H     -1.762557    2.068912    0.322542
H     -1.784347    1.651313   -1.431066
H     -0.573152   -2.032872   -0.723577
H     -2.125569   -1.357692   -1.300753
H     -0.590008   -0.870658   -2.107670
20

C      2.865286   -0.339086    0.375823
C      1.462175   -0.741965   -0.054232
C      0.481108    0.431492    0.101383
C     -0.581353    0.273260    1.193262
C     -0.982005    0.179468   -0.278159
C     -1.740424    1.387219   -0.837538
C     -1.398497   -1.210131   -0.783727
H      3.224461    0.511526   -0.241078
H      3.554994   -1.196725    0.232349
H      2.869241   -0.047774    1.447848
H      1.153550   -1.644864    0.514608
H      0.845125    1.469336   -0.063430
H     -0.839374    1.226542    1.701866
H     -0.558390   -0.685971    1.753071
H     -1.616597    1.421265   -1.940100
H     -2.820576    1.289387   -0.600808
H     -1.373453    2.346048   -0.411819
H     -1.028385   -2.032154   -0.137067
H     -1.010679   -1.358584   -1.813069
H     -2.506208   -1.278287   -0.810090
20

C      2.461967   -0.474638   -0.096008
C      1.527345    0.708026   -0.318157
C      0.359500    0.656584    0.682505
C     -0.843005    1.491897    0.232177
C     -0.934382   -0.030197    0.223050
C     -1.753922   -0.646437    1.358149
C     -1.030002   -0.698082   -1.158931
H      3.318962   -0.409479   -0.799097
H      1.927522   -1.431000   -0.274916
H      2.853562   -0.465493    0.943717
H      2.096424    1.643000   -0.129276
H      1.211827    0.733184   -1.380694
H     -1.361368    1.996728    1.074450
H     -0.739277    1.987948   -0.757103
H     -1.480018   -1.716179    1.471995
H     -1.572111   -0.132692    2.327218
H     -2.835329   -0.576084    1.117100
H     -0.808916   -0.000409   -1.992686
H     -2.062429   -1.074401   -1.316985
H     -0.336352   -1.562278   -1.206507
20

C      2.286750   -0.079293    0.731365
C      1.471103    0.818200   -0.191723
C      0.403692   -0.004327   -0.933868
C     -0.766012    0.813469   -1.493533
C     -0.996281   -0.158624   -0.337198
C     -1.325334    0.456930    1.032930
C     -1.732040   -1.442229   -0.725078
H      2.780604   -0.885120    0.147333
H      3.069678    0.522245    1.239421
H      1.633208   -0.536901    1.503318
H      1.047910    1.657671    0.395889
H      2.153763    1.261591   -0.947633
H      0.744147   -0.800760   -1.629993
H     -0.735639    1.870082   -1.151455
H     -2.415496    0.371498    1.224331
H     -0.788455   -0.099705    1.828273
H     -1.066043    1.532784    1.102179
H     -1.462453   -2.250388   -0.013457
H     -2.828199   -1.272802   -0.677623
H     -1.474903   -1.774320   -1.754385
20

C     -2.073532    0.692123    1.325120
C     -1.137327   -0.048147    0.378114
C     -1.689686   -0.477930   -0.988865
C     -0.160819   -1.005062    1.056902
C      0.337891    0.336026    0.513364
C      1.224098    0.257312   -0.741776
C      2.692289    0.411728   -0.363236
H     -2.945605    0.053170    1.577277
H     -2.422796    1.634219    0.853285
H     -2.724959   -0.859613   -0.866723
H     -1.091131   -1.284828   -1.459232
H     -1.715161    0.398920   -1.668910
H     -0.219130   -1.039057    2.165970
H      0.132389   -1.900620    0.468523
H      0.563230    1.102695    1.287278
H      0.942313    1.083330   -1.428966
H      1.106460   -0.702791   -1.287011
H      2.998134   -0.404739    0.325347
H      2.862873    1.391976    0.131076
H      3.320469    0.361288   -1.277538
20

C     -1.097782   -0.708035   -1.165116
C     -0.585239    0.138021    0.019206
C     -1.769257    0.786932    0.752064
C      0.379713    1.216923   -0.467838
C      1.788952    0.653920   -0.349804
C      1.682389   -0.651523    0.433300
C      0.260019   -0.717112    0.971534
H     -1.673280   -0.076024   -1.875381
H     -1.764492   -1.519732   -0.802395
H     -0.251676   -1.169996   -1.717948
H     -2.358823    1.419046    0.053414
H     -2.437531    0.005358    1.173390
H     -1.412116    1.431356    1.584496
H      0.153241    1.592376   -1.490135
H      2.219309    0.467116   -1.357890
H      2.427078    1.383982    0.191813
H      2.423972   -0.686728    1.260944
H      1.863117   -1.513144   -0.246643
H      0.252565   -0.285109    1.997730
H     -0.100158   -1.767628    1.035258
20

C     -1.759225    0.347124   -0.855577
C     -0.487232   -0.005323   -0.061723
C     -0.879293   -0.461868    1.360865
C      0.326585   -1.097304   -0.768881
C      1.785522   -0.839926   -0.417410
C      1.873453    0.587245    0.112476
C      0.476169    1.186211    0.004521
H     -2.426021   -0.538774   -0.929939
H     -2.313751    1.168008   -0.351976
H     -1.506669    0.679198   -1.885713
H     -1.541501   -1.353174    1.314748
H     -1.422856    0.347933    1.893603
H      0.020307   -0.727947    1.956512
H      0.012456   -2.122788   -0.473699
H      0.229945   -1.009317   -1.873126
H      2.128630   -1.558628    0.358934
H      2.200839    0.579137    1.175488
H      2.603044    1.172275   -0.486854
H      0.258655    1.862907    0.860233
H      0.420944    1.785011   -0.932483
18

C     -1.444094    0.510293    1.289589
C     -0.527425    0.136488    0.119901
C     -1.354325   -0.161261   -1.141859
C      0.425938    1.253642   -0.150065
C      1.688012    0.862007   -0.118598
C      1.824504   -0.586283    0.179618
C      0.396942   -1.049267    0.487773
H     -2.052407    1.409622    1.051459
H     -2.118488   -0.333981    1.548783
H     -0.688577   -0.422546   -1.993178
H     -2.042706   -1.014304   -0.959371
H     -1.960142    0.725321   -1.429182
H      0.126009    2.270703   -0.384361
H      2.524105    1.522687   -0.322976
H      2.227854   -1.113825   -0.711311
H      2.495941   -0.739566    1.051560
H      0.323814   -1.299569    1.570136
H      0.155042   -1.970161   -0.087919
18

C     -1.229845   -1.327994   -0.173893
C     -0.333237   -0.083319   -0.067648
C     -1.171625    1.196590   -0.225975
C      0.727397   -0.121936   -1.119240
C      1.943753   -0.011275   -0.614402
C      1.936488    0.122259    0.864918
C      0.470639   -0.069162    1.256128
H     -1.767461   -1.339316   -1.146690
H     -1.980678   -1.331897    0.645253
H     -0.622955   -2.256628   -0.100141
H     -0.525727    2.099084   -0.157645
H     -1.941640    1.254627    0.573130
H     -1.685396    1.207063   -1.211637
H      0.530732   -0.196532   -2.184557
H      2.842471    0.014251   -1.221469
H      2.280840    1.142821    1.138337
H      0.141084    0.737702    1.947802
H      0.385159   -1.036338    1.797730
18

C     -1.374615   -0.966645    0.869135
C     -0.457141   -0.010514    0.098018
C     -1.256777    1.163492   -0.489421
C      0.679387    0.477712    1.012929
C      1.988358    0.149678    0.297474
C      1.572429   -0.652319   -0.881408
C      0.257839   -0.740049   -0.992670
H     -2.165128   -1.370891    0.200475
H     -1.863405   -0.434589    1.713536
H     -0.792960   -1.819781    1.281752
H     -2.033991    0.791431   -1.191498
H     -1.758455    1.733952    0.321618
H     -0.585235    1.855675   -1.042695
H      0.611387    1.557136    1.273386
H      2.502047    1.076079   -0.037552
H      2.649383   -0.446677    0.960024
H      2.263581   -1.097055   -1.589790
H     -0.236703   -1.266636   -1.803312
20

C      0.741282    1.998414   -0.097828
C      0.367707    0.818734    0.794506
C      0.875007   -0.573546    0.379028
C      1.729553   -0.711759   -0.891294
C     -0.612189   -0.216351    0.219957
C     -1.188121   -0.017384   -1.195396
C     -1.544695   -0.873250    1.243437
H      1.744558    2.378161    0.185949
H     -0.008433    2.807677    0.020995
H      0.322428    0.983927    1.892500
H      1.113698   -1.250041    1.227970
H      1.613307    0.116377   -1.616553
H      2.798550   -0.753163   -0.596925
H      1.471645   -1.664704   -1.398125
H     -2.177570    0.480206   -1.120576
H     -1.329537   -1.008680   -1.674387
H     -0.555062    0.603470   -1.857985
H     -1.063010   -0.987632    2.238529
H     -1.842963   -1.878836    0.879837
H     -2.456153   -0.251620    1.366361
20

C      0.610665    1.962888    1.126608
C      0.189559    1.096694   -0.053463
C      1.004593   -0.194974   -0.183725
C      1.328227   -0.628754   -1.617837
C     -0.461879   -0.254988    0.273581
C     -1.528921   -0.740367   -0.719489
C     -0.674470   -0.629528    1.748425
H     -0.239239    2.603710    1.440054
H      1.468388    2.602945    0.833253
H     -0.110392    1.591885   -1.002158
H      1.768901   -0.377118    0.603485
H      0.716247   -0.105568   -2.381503
H      2.394610   -0.404486   -1.827096
H      1.175318   -1.723718   -1.714838
H     -2.538304   -0.557833   -0.294971
H     -1.409012   -1.830962   -0.887852
H     -1.478349   -0.216056   -1.695962
H      0.202586   -0.381798    2.383261
H     -0.857062   -1.721601    1.828342
H     -1.561469   -0.090370    2.141885
20

C      1.087456    0.471320    1.634342
C      0.618089    0.147063    0.217668
C      1.668675    0.215724   -0.900496
C     -0.496887   -0.894588    0.047298
C     -1.043769   -1.561285    1.313976
C     -0.817969    0.599823   -0.085466
C     -1.135279    1.080972   -1.505703
H      1.857041   -0.260195    1.957911
H      1.506091    1.498701    1.671078
H      1.332040   -0.277340   -1.835619
H      1.910495    1.277197   -1.117177
H      2.595502   -0.296681   -0.567737
H     -0.476239   -1.487983   -0.892190
H     -0.334432   -2.346750    1.647760
H     -2.016344   -2.040379    1.077649
H     -1.203976   -0.843754    2.146765
H     -1.360498    1.073364    0.762130
H     -2.229563    1.243334   -1.591883
H     -0.622307    2.047581   -1.690679
H     -0.838127    0.353876   -2.289626
22

C     -2.939868    0.888571    0.674460
C     -1.579351    0.989027   -0.004472
C     -0.877464   -0.377164   -0.051756
C      0.539301   -0.288113   -0.687212
C      0.760412   -1.455739   -1.660651
C      1.665358   -0.290140    0.374383
C      1.641373    0.939251    1.281282
H     -3.606482    0.192681    0.121889
H     -2.830223    0.554333    1.728137
H     -1.727483    1.367700   -1.038669
H     -0.964852    1.727955    0.548340
H     -0.817967   -0.806205    0.972832
H     -1.526363   -1.063272   -0.640909
H      0.627974    0.644596   -1.289140
H      0.000148   -1.429173   -2.470540
H      0.685642   -2.428166   -1.127654
H      1.762613   -1.381543   -2.134621
H      2.651100   -0.307421   -0.140708
H      1.599711   -1.206700    1.000990
H      0.760663    0.909800    1.955696
H      1.621008    1.870049    0.675630
H      2.554748    0.949672    1.912695
22

C     -2.921971    0.727973    0.552078
C     -1.531900    0.888145   -0.051615
C     -0.772758   -0.443645   -0.094009
C      0.626759   -0.287778   -0.750571
C      0.895232   -1.452504   -1.715879
C      1.766794   -0.220324    0.293998
C      1.692458    1.014568    1.190578
H     -3.517462    0.004189   -0.043244
H     -2.847649    0.372552    1.601851
H     -3.442198    1.708237    0.540571
H     -0.968438    1.656916    0.515704
H     -0.683112   -0.860574    0.933248
H     -1.395439   -1.159592   -0.674897
H      0.655541    0.642159   -1.363027
H      0.123850   -1.474233   -2.515332
H      0.878722   -2.421933   -1.172511
H      1.885616   -1.331124   -2.204729
H      2.744359   -0.191076   -0.235932
H      1.758530   -1.133028    0.929571
H      0.827443    0.943315    1.881936
H      1.610291    1.937144    0.577629
H      2.615332    1.080615    1.804584
22

C     -2.772162    0.814936    0.291782
C     -1.548647   -0.093209    0.303846
C     -0.528265    0.377852   -0.740458
C      0.832195   -0.353128   -0.715754
C      0.675243   -1.860697   -0.955206
C      1.640698   -0.084608    0.571384
C      1.894705    1.405165    0.802712
H     -3.267444    0.783071   -0.702213
H     -3.497163    0.473327    1.060418
H     -2.476184    1.861043    0.521110
H     -1.106158   -0.064524    1.320344
H     -1.871632   -1.132193    0.080615
H     -0.970553    0.324119   -1.759662
H      1.424041    0.048801   -1.568017
H      0.187789   -2.353119   -0.087311
H      1.672645   -2.326148   -1.105949
H      0.066800   -2.044919   -1.866250
H      2.627281   -0.591189    0.488215
H      1.127778   -0.513242    1.458028
H      2.545663    1.536012    1.692693
H      0.939637    1.940628    0.987288
H      2.403733    1.852025   -0.077612
22

C     -3.071480    0.569352   -0.335515
C     -1.893703   -0.399055   -0.401417
C     -0.565339    0.327790   -0.160821
C      0.636453   -0.617217   -0.356047
C      0.805532   -1.624617    0.789622
C      1.944133    0.125859   -0.697509
C      2.437432    1.045561    0.421340
H     -4.018774    0.014558   -0.502424
H     -3.115384    1.055558    0.662399
H     -2.974965    1.349725   -1.120225
H     -2.043584   -1.185521    0.368145
H     -1.879999   -0.881832   -1.402979
H     -0.490236    1.167025   -0.886991
H     -0.551128    0.758863    0.864275
H      0.875338   -1.103745    1.767698
H     -0.055787   -2.322241    0.814960
H      1.722588   -2.231310    0.635511
H      1.788376    0.729138   -1.617553
H      2.736419   -0.618080   -0.929023
H      2.663303    0.463067    1.338470
H      1.681269    1.824208    0.653189
H      3.369538    1.552915    0.094895
22

C     -0.997726   -1.389330   -0.600040
C     -0.605264   -0.095469    0.124163
C     -1.515529    1.081543   -0.292585
C     -2.967076    0.895167    0.151142
C      0.870739    0.247591   -0.166041
C      1.836313   -0.798943    0.411916
C      3.289215   -0.407605    0.157460
H     -1.967100   -1.784434   -0.231422
H     -1.029426   -1.245508   -1.701319
H     -0.715526   -0.257404    1.219665
H     -1.139736    2.018373    0.174226
H     -1.484145    1.219206   -1.395779
H     -3.540886    1.820862   -0.065471
H     -3.443070    0.058706   -0.401283
H     -3.017644    0.695926    1.242672
H      1.111460    1.233323    0.290514
H      1.026870    0.334146   -1.264578
H      1.676624   -0.891605    1.508255
H      1.649685   -1.789600   -0.055686
H      3.962610   -1.182044    0.581475
H      3.517905    0.565347    0.642341
H      3.481708   -0.328247   -0.933744
22

C     -2.454458    0.890599   -0.191856
C     -1.699935   -0.352372   -0.653756
C     -0.722326   -0.913283    0.396109
C     -0.191530   -2.275015   -0.067793
C      0.424605    0.058620    0.771969
C      1.289425    0.518021   -0.414849
C      2.421171    1.428133    0.054284
H     -3.253235    1.123220   -0.926014
H     -2.924796    0.712678    0.797975
H     -1.769495    1.761616   -0.129587
H     -1.214153   -0.182320   -1.638084
H     -1.304373   -1.102631    1.325353
H      0.318548   -2.194437   -1.050466
H     -1.034302   -2.991527   -0.172518
H      0.520767   -2.687994    0.677892
H     -0.007684    0.951635    1.272942
H      1.076501   -0.438134    1.524238
H      0.671129    1.082698   -1.143682
H      1.736057   -0.358262   -0.929136
H      3.082991    0.887285    0.763907
H      3.026247    1.750038   -0.819424
H      2.008847    2.331431    0.552493
22

C     -2.949003    0.504805   -0.921075
C     -1.426503    0.585310   -0.845653
C     -0.866343    0.022178    0.481458
C     -1.017359   -1.506343    0.565381
C      0.596586    0.467203    0.723619
C      1.596549   -0.036399   -0.332211
C      3.010455    0.445324   -0.019233
H     -3.297491   -0.547295   -0.977127
H     -3.420802    1.026112   -0.061284
H     -0.999826    0.039146   -1.713820
H     -1.144233    1.655512   -0.945056
H     -1.461082    0.456693    1.316274
H     -0.595565   -2.000574   -0.334947
H     -0.500358   -1.897701    1.467307
H     -2.088921   -1.783111    0.648436
H      0.630375    1.578811    0.753524
H      0.917370    0.108745    1.726828
H      1.314717    0.339525   -1.338175
H      1.603426   -1.146366   -0.356062
H      3.048141    1.555582   -0.015196
H      3.338281    0.063271    0.971056
H      3.711583    0.069573   -0.794043
20

C      3.068647    0.835021    1.052129
C      2.036568    0.777739    0.209365
C      1.135706   -0.429124    0.169642
C     -0.053343   -0.253017   -0.802337
C     -0.805296   -1.582013   -0.970492
C     -1.015608    0.900207   -0.412527
C     -1.654982    0.764249    0.972273
H      3.285580    0.020072    1.736230
H      1.869313    1.617119   -0.457545
H      1.747928   -1.296999   -0.160729
H      0.767976   -0.658849    1.192227
H      0.365307    0.000412   -1.802435
H     -0.135843   -2.340134   -1.430309
H     -1.150764   -1.973663    0.009129
H     -1.682520   -1.450540   -1.639185
H     -0.475912    1.869647   -0.455709
H     -1.827991    0.962118   -1.169215
H     -2.215422   -0.188283    1.063186
H     -2.371466    1.598623    1.125375
H     -0.887876    0.827417    1.770928
20

C      3.442695    0.159993    0.047587
C      2.165622    0.162729   -0.335757
C      1.114291   -0.606483    0.411899
C     -0.277070   -0.426236   -0.230437
C     -1.258554   -1.441726    0.377639
C     -0.786311    1.025167   -0.046445
C     -2.045125    1.323104   -0.862402
H      4.173473    0.727718   -0.517416
H      3.763363   -0.402994    0.919013
H      1.399796   -1.681428    0.394672
H      1.089783   -0.271253    1.472428
H     -0.189882   -0.647082   -1.318456
H     -1.429044   -1.226602    1.454410
H     -0.857267   -2.473047    0.279672
H     -2.230560   -1.418303   -0.156301
H     -0.989933    1.226853    1.028086
H     -0.002248    1.740124   -0.376647
H     -2.917714    0.769013   -0.459563
H     -2.273729    2.408259   -0.804344
H     -1.891587    1.052194   -1.928545
20

C      2.811024   -0.407982   -1.169148
C      2.291398   -0.816656   -0.008380
C      1.256778   -0.008087    0.724912
C     -0.116835   -0.004353    0.025285
C     -0.722435   -1.418034    0.044540
C     -1.045555    1.012972    0.725728
C     -2.353982    1.249248   -0.030658
H      3.565109   -1.008277   -1.667518
H      2.492816    0.523966   -1.626481
H      2.640636   -1.742569    0.436853
H      1.640122    1.024455    0.879314
H      0.020906    0.312986   -1.032360
H     -0.919037   -1.745383    1.088040
H     -0.032990   -2.145734   -0.432818
H     -1.670290   -1.447589   -0.530618
H     -1.274745    0.675119    1.760326
H     -0.524713    1.992932    0.800160
H     -3.006388    0.353331    0.018487
H     -2.901445    2.095360    0.435765
H     -2.150374    1.504295   -1.092336
20

C      2.539785   -0.749122    1.286430
C      2.179439   -0.910652    0.009914
C      1.244447    0.048995   -0.672989
C     -0.165681    0.001598   -0.053587
C     -0.863399   -1.337107   -0.344320
C     -1.012863    1.205984   -0.509288
C     -2.242896    1.405934    0.373044
H      3.223132   -1.452366    1.751073
H      2.157588    0.080802    1.873263
H      2.586149   -1.744132   -0.555094
H      1.672487    1.071013   -0.581740
H      1.188140   -0.196811   -1.755851
H     -1.816778   -1.408293    0.216745
H     -0.227667   -2.185464   -0.015999
H     -1.069529   -1.442736   -1.430867
H     -0.404068    2.133752   -0.442320
H     -1.326091    1.081324   -1.568891
H     -1.949467    1.436201    1.444108
H     -2.732139    2.368213    0.112494
H     -2.980590    0.592867    0.212969
20

C     -0.564207    2.290474    0.510075
C     -0.314137    0.791094    0.329850
C     -1.555871    0.162914   -0.343867
C     -1.564762   -1.365137   -0.301628
C      0.990881    0.576107   -0.477449
C      1.573876   -0.800560   -0.298438
C      2.091209   -1.201539    0.866566
H     -0.636199    2.806231   -0.471914
H      0.236801    2.755989    1.123336
H     -0.203625    0.364259    1.350994
H     -1.636612    0.502040   -1.399930
H     -2.468048    0.513739    0.188380
H     -2.569980   -1.735829   -0.593707
H     -0.831323   -1.781329   -1.021029
H     -1.338219   -1.732032    0.721963
H      1.763160    1.312590   -0.162413
H      0.798368    0.752372   -1.558027
H      1.613016   -1.471262   -1.151617
H      2.095177   -0.546143    1.732144
H      2.520495   -2.193978    0.956713
20

C      2.837921   -0.667687   -0.313248
C      2.125885   -0.353926    0.773023
C      0.975839    0.617672    0.715142
C     -0.243215    0.050156   -0.046755
C     -0.838762   -1.154242    0.702103
C     -1.301310    1.159075   -0.218757
C     -2.420312    0.783694   -1.188857
H      2.602413   -0.234665   -1.280637
H      3.668545   -1.361571   -0.235945
H      2.400410   -0.788672    1.729592
H      0.674637    0.880853    1.752861
H      1.333268    1.551339    0.227404
H      0.089338   -0.282430   -1.055213
H     -0.063775   -1.929116    0.879292
H     -1.640552   -1.631773    0.102589
H     -1.257594   -0.837103    1.681302
H     -0.823666    2.093566   -0.586753
H     -3.048740   -0.026698   -0.767528
H     -3.070955    1.667566   -1.354857
H     -1.999375    0.463962   -2.165665
20

C     -2.460802    0.494429    0.746557
C     -1.661862    0.482238   -0.555233
C     -0.280571   -0.195042   -0.418308
C     -0.420588   -1.669936   -0.005776
C      0.644417    0.580400    0.548329
C      2.073721    0.111808    0.468855
C      2.841883    0.371769   -0.593114
H     -3.499020    0.834962    0.549264
H     -1.997067    1.180432    1.485656
H     -2.253627   -0.058177   -1.325786
H     -1.534286    1.527063   -0.913340
H      0.178571   -0.175745   -1.431795
H     -0.824833   -1.756893    1.025189
H     -1.101613   -2.200964   -0.704493
H      0.567251   -2.175880   -0.042900
H      0.290874    0.449705    1.593691
H      0.612694    1.668160    0.318547
H      2.499547   -0.425788    1.310945
H      3.872144    0.031886   -0.614010
H      2.453167    0.925574   -1.442277
18

C      2.520187    1.552912    1.493933
C      1.790762    0.621694    1.261868
C      0.900682   -0.512569    0.979551
C      0.359935   -0.472308   -0.460968
C     -0.348009   -1.792244   -0.796590
C     -0.561918    0.746268   -0.709920
C     -1.782576    0.805042    0.213016
H      3.160309    2.370703    1.697262
H      1.463227   -1.453505    1.160466
H      1.225347   -0.384491   -1.156328
H      0.382943   -2.628787   -0.778786
H     -1.148922   -2.014874   -0.060358
H     -0.791386   -1.746720   -1.814124
H      0.023671    1.682223   -0.581571
H     -0.912626    0.732517   -1.764916
H     -2.457190   -0.056522    0.030035
H     -1.472591    0.814472    1.278833
H     -2.351848    1.736187    0.008598
18

C      2.540091    1.742660   -0.621755
C      2.031838    0.914568    0.091804
C      1.410934   -0.095416    0.961602
C      0.065874   -0.596566    0.404437
C      0.232342   -1.365538   -0.914229
C     -0.995329    0.518809    0.322853
C     -2.410059   -0.050784    0.265565
H      2.985725    2.469541   -1.248555
H      1.255149    0.344546    1.968993
H      2.109655   -0.950734    1.075848
H      1.025467   -2.135435   -0.809004
H     -0.708913   -1.889528   -1.176353
H      0.506539   -0.675446   -1.740276
H     -0.926918    1.160615    1.228096
H     -0.815138    1.162337   -0.565715
H     -2.584169   -0.577290   -0.695517
H     -2.577515   -0.753903    1.109207
H     -3.145572    0.777566    0.343000
18

C      2.752594    0.151115   -1.138222
C      1.621904   -0.266876   -1.130782
C      0.241874   -0.776348   -1.121997
C     -0.413255   -0.696285    0.275281
C      0.321434   -1.609960    1.261897
C     -0.479742    0.741610    0.841556
C     -1.342907    1.677303   -0.005341
H      3.745037    0.518323   -1.144195
H     -0.357345   -0.207342   -1.862193
H      0.255370   -1.832761   -1.465885
H     -1.453409   -1.081147    0.183051
H      0.345638   -2.654725    0.884906
H     -0.181751   -1.604008    2.252351
H      0.540826    1.171212    0.939038
H     -0.922846    0.707267    1.861196
H     -2.343310    1.229308   -0.184638
H     -1.478322    2.640327    0.530700
H     -0.851789    1.892988   -0.976721
18

C      2.879219   -0.014133    1.323749
C      2.079791    0.538476    0.610441
C      1.103643    1.212769   -0.260287
C     -0.160904    0.361729   -0.502936
C      0.181757   -0.931804   -1.260185
C     -0.885860    0.065058    0.826629
C     -2.280912   -0.525880    0.634810
H      3.580635   -0.499707    1.949905
H      1.592618    1.445962   -1.230269
H      0.819587    2.179399    0.208015
H     -0.838602    0.965154   -1.147284
H      0.801509   -0.703312   -2.153389
H     -0.743057   -1.429989   -1.617782
H      0.739885   -1.635982   -0.606721
H     -0.977234    0.996620    1.427129
H     -2.895726    0.129685   -0.017705
H     -2.779337   -0.612996    1.622728
H     -2.217011   -1.541049    0.193152
18

C      2.299032   -0.722672    1.431484
C      1.698151    0.138817    0.839509
C      0.969576    1.192072    0.116664
C     -0.285495    0.675179   -0.623624
C      0.047832   -0.416090   -1.654461
C     -1.434161    0.267915    0.328997
C     -1.139595   -0.979964    1.157436
H      2.825573   -1.479463    1.950886
H      1.664586    1.651360   -0.618416
H      0.679719    1.984506    0.839100
H     -0.671469    1.541124   -1.206944
H      0.776944   -0.025580   -2.396000
H     -0.871195   -0.719891   -2.199423
H      0.487852   -1.312233   -1.169679
H     -1.645287    1.110841    1.022131
H     -2.358801    0.091366   -0.262817
H     -1.923985   -1.113620    1.931764
H     -1.119277   -1.883663    0.513393
20

C     -2.473078    1.584051    0.408301
C     -2.022508    0.472614    0.996113
C     -0.959093   -0.391233    0.359358
C     -1.465800   -0.966832   -0.972171
C      0.356622    0.402764    0.194524
C      1.549317   -0.495642   -0.167328
C      2.851226    0.300556   -0.187938
H     -3.237127    2.188827    0.885483
H     -2.431302    0.182315    1.959621
H     -0.772683   -1.243364    1.050087
H     -0.772247   -1.746000   -1.350005
H     -2.458201   -1.445769   -0.828217
H     -1.562657   -0.167155   -1.737554
H      0.232253    1.185537   -0.586430
H      0.583914    0.916040    1.155830
H      1.398821   -0.943502   -1.172131
H      1.643511   -1.316355    0.576598
H      2.790396    1.119801   -0.935789
H      3.692742   -0.369716   -0.462955
H      3.055895    0.733063    0.814605
20

C      1.775349   -1.876684    0.433791
C      1.805530   -0.722693   -0.236386
C      1.048656    0.502640    0.211437
C      1.821637    1.744807   -0.240475
C     -0.382158    0.529600   -0.368904
C     -1.287911   -0.557292    0.229714
C     -2.727675   -0.401472   -0.251997
H      1.199451   -1.979014    1.348442
H      2.338280   -2.726013    0.063533
H      0.999699    0.528769    1.323548
H      1.313943    2.665392    0.118967
H      1.891661    1.783609   -1.349379
H      2.848897    1.732616    0.183724
H     -0.836972    1.521339   -0.149487
H     -0.342761    0.412784   -1.475036
H     -1.272098   -0.493375    1.339484
H     -0.926260   -1.562247   -0.073810
H     -3.138547    0.579686    0.068217
H     -3.354908   -1.207332    0.184126
H     -2.773814   -0.475121   -1.359510
20

C     -2.013350   -1.745484    0.487090
C     -1.658333   -0.649614   -0.184233
C     -0.858554    0.431809    0.487456
C     -1.661724    1.731560    0.537268
C      0.504143    0.635248   -0.193865
C      1.424765   -0.570682    0.031540
C      2.802226   -0.335051   -0.581313
H     -1.730276   -1.877600    1.527138
H     -2.590827   -2.520984   -0.005333
H     -1.951161   -0.537663   -1.224423
H     -1.099094    2.503060    1.103837
H     -1.862135    2.108093   -0.489067
H     -2.628296    1.559503    1.056747
H      0.993174    1.536386    0.237609
H      0.362503    0.808179   -1.284058
H      0.981402   -1.478910   -0.431000
H      1.541205   -0.752436    1.122339
H      3.287101    0.548455   -0.114022
H      3.443504   -1.224740   -0.407528
H      2.713726   -0.169130   -1.676183
20

C      0.841590    1.532730    1.515289
C      0.989471    0.165120    0.843627
C      1.772318    0.278337   -0.445732
C      2.258136   -0.800702   -1.066971
C     -0.383539   -0.513617    0.640464
C     -1.300241    0.213187   -0.359957
C     -2.604991   -0.551987   -0.562446
H      1.832104    1.909532    1.848870
H      0.382429    2.278017    0.831978
H      1.573965   -0.470335    1.545624
H      1.969198    1.257415   -0.874545
H      2.824174   -0.689102   -1.985990
H      2.100008   -1.796735   -0.665080
H     -0.218033   -1.556217    0.290295
H     -0.898821   -0.579909    1.624267
H     -0.793062    0.312059   -1.343504
H     -1.545862    1.228978    0.014986
H     -3.149351   -0.648488    0.401122
H     -2.399499   -1.564359   -0.971053
H     -3.249994   -0.003925   -1.281244
20

C     -2.158998    0.737205   -0.893541
C     -1.317948    1.188297    0.044697
C     -0.493652    0.270662    0.922286
C     -1.389181   -0.614126    1.794085
C      0.478218   -0.597311    0.105260
C      1.565467    0.221611   -0.595812
C      2.592766   -0.699327   -1.242379
H     -2.724268    1.440108   -1.496656
H     -2.291749   -0.325273   -1.068972
H     -1.218430    2.261125    0.181666
H      0.105912    0.905319    1.611541
H     -2.079548    0.015637    2.395267
H     -0.765454   -1.211277    2.493270
H     -1.988825   -1.312160    1.171711
H     -0.063638   -1.241370   -0.621632
H      2.082506    0.870215    0.143866
H      1.109555    0.865648   -1.378461
H      3.066721   -1.346365   -0.473558
H      3.382149   -0.090741   -1.731777
H      2.108396   -1.337878   -2.011766
20

C     -2.139388    1.582927    0.332575
C     -1.568561    0.577070   -0.337007
C     -0.745014   -0.482894    0.358395
C     -1.421896   -1.845183    0.179253
C      0.688173   -0.516008   -0.204044
C      1.461640    0.757060    0.156652
C      2.920485    0.670643   -0.275033
H     -2.725557    2.324486   -0.200264
H     -2.028359    1.677595    1.408308
H     -1.705523    0.517407   -1.413321
H     -0.688956   -0.278288    1.452003
H     -2.452347   -1.817044    0.594404
H     -0.853529   -2.630661    0.721732
H     -1.475465   -2.119876   -0.896602
H      0.664400   -0.641665   -1.309633
H      1.225664   -1.387756    0.230255
H      0.990612    1.646793   -0.314193
H      3.419049   -0.183763    0.229257
H      3.444307    1.605802    0.012700
H      2.990264    0.543354   -1.376345
20

C      2.911812    0.899530    0.217904
C      1.762310   -0.096973    0.280702
C      0.563053    0.410598   -0.530852
C     -0.596154   -0.609215   -0.557858
C     -1.702498   -0.153609   -1.517824
C     -1.159358   -0.876793    0.822519
C     -1.727629    0.073738    1.573979
H      3.797275    0.491203    0.749094
H      2.617287    1.861931    0.688207
H      2.110318   -1.067535   -0.134028
H      1.473759   -0.246283    1.343473
H      0.211371    1.379160   -0.112452
H      0.900137    0.598242   -1.574719
H     -0.199513   -1.571114   -0.952548
H     -2.531934   -0.892998   -1.524562
H     -1.301838   -0.075235   -2.551025
H     -2.105925    0.837363   -1.219120
H     -1.095343   -1.885387    1.220377
H     -1.814102    1.096009    1.220834
H     -2.113028   -0.172631    2.557899
18

C      2.840576    0.798490    0.252393
C      1.750955    0.645084    1.008131
C      0.769141   -0.472637    0.771393
C     -0.033790   -0.278794   -0.533014
C     -0.956710   -1.476738   -0.788508
C     -0.818373    1.017164   -0.534107
C     -1.780153    1.286811    0.356601
H      3.056547    0.127398   -0.573243
H      1.586107    1.329715    1.833689
H      1.324732   -1.435444    0.732438
H      0.075688   -0.528909    1.638016
H      0.684844   -0.237767   -1.381260
H     -0.354887   -2.404412   -0.895394
H     -1.528541   -1.325314   -1.729118
H     -1.672636   -1.614518    0.049615
H     -0.586472    1.761253   -1.290571
H     -2.309831    2.232724    0.311413
H     -2.047198    0.575895    1.131536
18

C      2.955482   -1.263381   -0.083931
C      1.899903   -0.590899   -0.543722
C      0.805013   -0.119133    0.369164
C     -0.290264    0.628255   -0.416413
C     -1.064786   -0.307564   -1.357291
C     -1.235124    1.345578    0.522796
C     -1.988291    0.705244    1.425138
H      3.726494   -1.588124   -0.773615
H      3.055493   -1.491801    0.972953
H      0.369560   -0.992287    0.902747
H      1.249573    0.565676    1.124871
H      0.200132    1.406988   -1.042858
H     -1.525207   -1.146971   -0.794009
H     -0.384862   -0.728833   -2.127607
H     -1.866758    0.255955   -1.880654
H     -1.303209    2.428006    0.462697
H     -2.649383    1.268125    2.075925
H     -1.953765   -0.374833    1.523820
18

C     -1.672852   -2.330037    0.216425
C     -0.516283   -1.859110    0.683112
C     -0.328218   -0.389364    0.911473
C      0.769555    0.200224    0.010847
C      0.369797    0.149754   -1.470299
C      1.086672    1.618476    0.426120
C      0.167383    2.591274    0.435206
H     -2.497774   -1.660000   -0.007109
H     -1.798974   -3.395194    0.052268
H      0.298368   -2.544570    0.897267
H     -0.081640   -0.225451    1.982932
H      1.697000   -0.401440    0.139305
H      0.278720   -0.903765   -1.809489
H      1.147037    0.642092   -2.093354
H     -0.602435    0.661198   -1.636163
H      2.100517    1.855450    0.735579
H      0.442500    3.594482    0.743897
H     -0.859373    2.395982    0.141993
18

C      2.755116   -0.618371    0.140106
C      1.814326   -0.454853   -0.794578
C      0.639185    0.457693   -0.579433
C     -0.277858   -0.066499    0.538665
C     -1.012414   -1.355893    0.154930
C     -1.227882    0.993313    1.037414
C     -2.160683    1.550389    0.257217
H      2.691782   -0.099973    1.092181
H      3.597461   -1.276465   -0.046406
H      1.910480   -0.977807   -1.741483
H      0.067083    0.548024   -1.528223
H      1.019879    1.468745   -0.315006
H     -0.280000   -2.160112   -0.065522
H     -1.651272   -1.195568   -0.739452
H     -1.648985   -1.693732    0.999879
H     -1.142729    1.313560    2.070688
H     -2.272401    1.256626   -0.781670
H     -2.821084    2.310924    0.660705
18

C      0.014065    1.517150    1.103405
C     -0.608112    0.186525    0.676849
C     -1.415463    0.368861   -0.588756
C     -2.275210   -0.563331   -1.010875
C      0.468526   -0.908593    0.512475
C      1.406277   -0.652661   -0.641404
C      2.453511    0.170130   -0.534621
H      0.579738    1.396479    2.051855
H     -0.774414    2.285438    1.254187
H     -1.299215   -0.127415    1.490841
H     -1.316402    1.284682   -1.165873
H     -2.847921   -0.402602   -1.918417
H     -2.416469   -1.486233   -0.456796
H     -0.036846   -1.883001    0.338669
H      1.048709   -1.019693    1.455040
H      1.239775   -1.176290   -1.578210
H      2.665934    0.689965    0.394272
H      3.113516    0.320587   -1.382640
18

C     -2.281739    0.972084   -0.800159
C     -1.302193    0.765999    0.082877
C     -0.345598   -0.395467   -0.022812
C     -1.062887   -1.705945    0.323564
C      0.854013   -0.181691    0.920375
C      1.665310    1.031235    0.544700
C      2.415808    1.061510   -0.560461
H     -2.425266    0.303374   -1.643336
H     -2.943151    1.822414   -0.678042
H      0.025976   -0.468617   -1.069351
H     -0.359545   -2.561590    0.237647
H     -1.462337   -1.672451    1.360329
H     -1.904329   -1.884490   -0.379313
H      1.517370   -1.074475    0.901709
H      0.489740   -0.059216    1.964304
H      1.662256    1.892631    1.206070
H      2.999192    1.945503   -0.796327
H      2.457380    0.209191   -1.231764
18

C     -2.540075    1.353138    1.103893
C     -1.519215    0.508698    1.271856
C     -0.534857    0.220601    0.160821
C     -1.200161   -0.646889   -0.919003
C      0.721334   -0.468660    0.735888
C      1.812569   -0.626142   -0.290566
C      2.496281    0.422407   -0.758002
H     -2.708317    1.858234    0.157664
H     -1.392734    0.045692    2.246120
H     -0.231540    1.189646   -0.294950
H     -0.497876   -0.828028   -1.759746
H     -1.514246   -1.625355   -0.495818
H     -2.093781   -0.133134   -1.332726
H      1.120504    0.122675    1.589797
H      0.448960   -1.473895    1.126278
H      2.068911   -1.622610   -0.638022
H      2.278837    1.429538   -0.415633
H      3.285404    0.274085   -1.487850
16

C      3.257784    0.849002   -0.374582
C      2.206475    0.682890    0.191327
C      0.925275    0.480182    0.880941
C     -0.186326    0.044440   -0.082375
C      0.024299   -1.392977   -0.573167
C     -1.511595    0.146059    0.629445
C     -2.499921    0.927271    0.182623
H      4.180589    0.994566   -0.871730
H      1.051517   -0.245674    1.713241
H     -0.178250    0.720781   -0.967667
H     -0.801139   -1.685735   -1.257036
H      0.049253   -2.102438    0.282177
H      0.979477   -1.473919   -1.133997
H     -1.673075   -0.440827    1.529859
H     -2.382976    1.526163   -0.715291
H     -3.441388    0.970215    0.720519
16

C      3.163281    0.597143   -0.756671
C      2.150922    0.545614   -0.104028
C      0.919617    0.482719    0.690832
C     -0.246270   -0.038159   -0.159304
C     -0.105489   -1.524782   -0.500353
C     -1.556701    0.216158    0.528014
C     -2.472173    1.008090   -0.030852
H      4.051764    0.642089   -1.329799
H      1.082519   -0.170158    1.575285
H      0.694462    1.510192    1.049191
H     -0.962034   -1.850218   -1.128105
H     -0.081004   -2.139434    0.425237
H      0.826668   -1.700131   -1.076786
H     -1.761220   -0.247917    1.488894
H     -2.287924    1.482141   -0.990373
H     -3.416418    1.186654    0.473105
16

C      3.242726    0.542696   -0.759173
C      2.179871    0.615849   -0.194944
C      0.884303    0.705132    0.493245
C     -0.162762   -0.209083   -0.162788
C      0.227126   -1.681704   -0.020531
C     -1.510412    0.018913    0.478099
C     -2.557142    0.477453   -0.215006
H      4.175614    0.478219   -1.254620
H      1.023201    0.433786    1.562298
H      0.541184    1.761118    0.444351
H     -0.210329    0.028495   -1.250009
H     -0.494626   -2.331989   -0.559615
H      0.280241   -1.984134    1.047793
H     -1.632551   -0.188666    1.537830
H     -2.476984    0.701524   -1.274220
H     -3.509460    0.632391    0.281580
16

C      2.719535    1.092825    0.627532
C      1.889651    0.761578   -0.181739
C      0.876443    0.356966   -1.169980
C     -0.408035   -0.189507   -0.517505
C     -0.135439   -1.464483    0.294969
C     -1.059414    0.869355    0.337093
C     -2.308641    0.756943    0.793924
H      3.447684    1.383367    1.338328
H      1.316889   -0.417069   -1.834179
H      0.626788    1.236827   -1.801140
H     -1.108889   -0.451577   -1.341397
H      0.372293   -2.221633   -0.339757
H     -1.090758   -1.903399    0.653197
H      0.505316   -1.245076    1.175759
H     -2.728549    1.547434    1.405694
H     -2.914874   -0.112553    0.559202
16

C     -2.652271    0.870710    0.456124
C     -1.800738   -0.145164    0.618142
C     -0.482830   -0.202281   -0.120983
C      0.087098   -1.627655   -0.057762
C      0.504530    0.823510    0.472058
C      1.718706    0.940972   -0.347294
C      2.714933    1.037493   -1.019270
H     -2.424759    1.700907   -0.205596
H     -2.090588   -0.955441    1.280806
H     -0.670800    0.042925   -1.191187
H      0.318730   -1.912721    0.991279
H     -0.648115   -2.351006   -0.471444
H      1.014882   -1.703598   -0.663189
H      0.790623    0.532023    1.505672
H      0.031259    1.827524    0.516266
H      3.589339    1.121805   -1.609335
18

C     -2.229264    2.525102    1.057391
C     -1.702913    1.621452    0.457338
C     -1.060162    0.519264   -0.275886
C     -1.957831   -0.721149   -0.244221
C      0.347400    0.252381    0.284884
C      1.186420   -0.603544   -0.672548
C      2.625310   -0.731801   -0.179894
H     -2.691212    3.318149    1.584242
H     -2.041452   -1.121008    0.789418
H     -1.552320   -1.510004   -0.909373
H     -2.973671   -0.464708   -0.614163
H      0.277151   -0.245365    1.277665
H      0.868330    1.226100    0.426730
H      1.191920   -0.139472   -1.682995
H      0.753614   -1.622889   -0.753493
H      3.204367   -1.365589   -0.884202
H      2.647951   -1.204979    0.824971
H      3.106363    0.268061   -0.125854
18

C     -3.335687    0.752280    0.650191
C     -2.307493    0.156432    0.445980
C     -1.052795   -0.570691    0.197890
C     -1.161272   -1.343802   -1.116382
C      0.129243    0.414685    0.172959
C      1.482054   -0.309810    0.105334
C      2.640512    0.683216    0.129711
H     -4.238021    1.275335    0.829282
H     -0.907828   -1.296287    1.027227
H     -1.347982   -0.660377   -1.973111
H     -1.966713   -2.107299   -1.060299
H      0.105532    1.031469    1.099581
H      0.029653    1.101849   -0.697236
H      1.546948   -0.907780   -0.829194
H      1.582074   -0.999156    0.971892
H      3.603345    0.132628    0.076748
H      2.621773    1.275651    1.069242
H      2.576657    1.371657   -0.739802
18

C     -2.887236    1.728991    0.854669
C     -2.072972    0.873914    0.609954
C     -1.081688   -0.168311    0.312703
C     -1.502529   -0.939674   -0.942500
C      0.293265    0.493070    0.146474
C      1.456188   -0.501595    0.192072
C      2.785094    0.240102    0.264965
H     -3.601816    2.479459    1.069266
H     -1.057677   -0.866670    1.177004
H     -1.508364   -0.273274   -1.832239
H     -0.807256   -1.784229   -1.129436
H     -2.520704   -1.364405   -0.807226
H      0.335625    1.112878   -0.777069
H      1.448055   -1.139737   -0.716998
H      1.362003   -1.152389    1.088041
H      2.921748    0.876572   -0.635370
H      2.820066    0.877876    1.174058
H      3.618197   -0.492577    0.311643
18

C     -2.917107    1.702615    0.437996
C     -2.056829    0.857731    0.440831
C     -1.006826   -0.173275    0.445256
C     -1.405017   -1.311057   -0.502433
C      0.339351    0.457617    0.047248
C      1.494845   -0.532900    0.218980
C      2.817025    0.054379   -0.258967
H     -3.672069    2.444159    0.435337
H     -0.932772   -0.576476    1.478892
H     -1.480399   -0.943992   -1.549058
H     -0.654768   -2.128715   -0.462664
H     -2.386749   -1.735604   -0.200215
H      0.536730    1.345615    0.688954
H      0.294337    0.798976   -1.011048
H      1.584818   -0.839482    1.283818
H      2.750520    0.320166   -1.334997
H      3.621269   -0.699321   -0.129459
H      3.073642    0.959565    0.331540
18

C     -2.848302    1.772299   -0.176185
C     -1.991292    0.954023    0.047201
C     -0.944995   -0.044546    0.320864
C     -1.312381   -1.362796   -0.371743
C      0.420645    0.501811   -0.144669
C      1.595308   -0.368214    0.322961
C      2.922861    0.278665   -0.049449
H     -3.600381    2.490446   -0.372403
H     -0.919662   -0.212041    1.419674
H     -1.277214   -1.251080   -1.477082
H     -0.617188   -2.171636   -0.066527
H     -2.336767   -1.678794   -0.077582
H      0.556713    1.525025    0.273602
H      0.438649    0.585007   -1.254526
H      1.555098   -0.505414    1.425443
H      1.549124   -1.364190   -0.164614
H      3.762650   -0.394798    0.223008
H      3.047133    1.246233    0.482040
16

C      1.988974    1.570595    1.071979
C      1.277303    0.646307    0.767390
C      0.406057   -0.481941    0.395816
C      1.230798   -1.759691    0.246611
C     -0.390796   -0.174003   -0.881218
C     -1.383512    0.933438   -0.654654
C     -2.427400    0.782050    0.165646
H      2.613569    2.382004    1.339088
H      1.968155   -1.657668   -0.579014
H      1.771516   -1.975561    1.192717
H      0.561112   -2.618504    0.030119
H     -0.942696   -1.081021   -1.211700
H      0.303574    0.116188   -1.700383
H     -1.259277    1.871291   -1.187920
H     -2.584196   -0.148331    0.703230
H     -3.133182    1.594847    0.302292
16

C      2.096005    1.404642   -1.186569
C      1.494637    0.624694   -0.490900
C      0.758787   -0.325252    0.358304
C      1.598284   -1.587568    0.533199
C     -0.614109   -0.663808   -0.253463
C     -1.517436    0.539914   -0.327495
C     -2.042163    1.094593    0.769069
H      2.623519    2.089165   -1.797299
H      0.620875    0.135318    1.360060
H      1.121954   -2.277352    1.262175
H      1.746159   -2.111525   -0.436225
H     -1.115154   -1.450771    0.352368
H     -0.475679   -1.071246   -1.279398
H     -1.771172    0.949122   -1.300935
H     -1.824694    0.696858    1.755656
H     -2.699814    1.953216    0.681453
16

C     -2.777117    1.764143   -0.029484
C     -1.868045    0.986914   -0.183018
C     -0.760127    0.038859   -0.371552
C     -0.896081   -1.107335    0.635658
C      0.573223    0.777853   -0.197376
C      1.744021   -0.081560   -0.569724
C      2.660824   -0.410082    0.340693
H     -3.574870    2.446253    0.105396
H     -0.828885   -0.370310   -1.403314
H     -0.797470   -0.728956    1.676448
H     -0.112726   -1.874045    0.457512
H     -1.885555   -1.601348    0.524475
H      0.597447    1.696243   -0.824023
H      1.844794   -0.439222   -1.590191
H      3.504239   -1.033234    0.061845
H      2.576329   -0.064171    1.366655
16

C      2.480467    1.752895    0.516145
C      1.562789    0.976542    0.420966
C      0.442475    0.029597    0.305696
C      0.988527   -1.372688    0.010880
C     -0.528187    0.509793   -0.790900
C     -1.776499   -0.326471   -0.855324
C     -2.709650   -0.293878    0.098336
H      3.285882    2.434231    0.599510
H     -0.083453    0.010259    1.284845
H      1.698847   -1.682752    0.807558
H      0.161159   -2.112929   -0.013043
H      1.516342   -1.392445   -0.967294
H     -0.026922    0.466061   -1.782140
H     -0.817936    1.568528   -0.607091
H     -3.591879   -0.917323    0.006408
H     -2.601961    0.350583    0.965450
16

C      2.396458   -0.523074   -1.402978
C      1.924023   -0.692053   -0.165932
C      0.933687    0.264241    0.444954
C     -0.457612    0.164853   -0.210994
C     -1.108719   -1.201118    0.037150
C     -1.329022    1.225634    0.318652
C     -2.042954    2.095379    0.751958
H      2.074546    0.307453   -2.023727
H      2.288599   -1.526745    0.423824
H      0.849948    0.046452    1.532618
H      1.329837    1.299291    0.342646
H     -0.364344    0.322846   -1.307291
H     -2.116878   -1.235744   -0.429530
H     -1.211186   -1.396692    1.126661
H     -0.496891   -2.009366   -0.416127
H     -2.669491    2.858643    1.132402
14

C      3.076732    0.184241   -0.397817
C      2.037697   -0.208422    0.070624
C      0.770497   -0.686602    0.642397
C     -0.432977   -0.259821   -0.208121
C     -1.708788   -0.933089    0.301195
C     -0.598350    1.202369   -0.158183
C     -0.733093    2.399991   -0.118654
H      3.988669    0.529197   -0.809282
H      0.817765   -1.793807    0.722901
H     -0.271623   -0.565689   -1.265432
H     -2.580219   -0.620811   -0.314120
H     -1.614149   -2.037552    0.226382
H     -1.900989   -0.661037    1.362080
H     -0.851172    3.451033   -0.083840
14

C      2.455270    0.388363   -0.740105
C      1.650049   -0.173662   -0.040767
C      0.666943   -0.859242    0.812705
C     -0.777709   -0.436458    0.501317
C     -1.226052   -0.815136   -0.911681
C     -1.007431    0.993190    0.770437
C     -1.195173    2.163499    0.990980
H      3.161655    0.881989   -1.354271
H      0.770189   -1.955481    0.669889
H      0.896556   -0.634764    1.875947
H     -2.306791   -0.591311   -1.035872
H     -1.076776   -1.902828   -1.077159
H     -0.651098   -0.248997   -1.675649
H     -1.359632    3.190837    1.184359
14

C      2.105186    1.480012    0.143112
C      1.480565    0.535228   -0.269890
C      0.717503   -0.618269   -0.774435
C     -0.650834   -0.777552   -0.084178
C     -0.518189   -1.046636    1.414896
C     -1.506507    0.398878   -0.307411
C     -2.207121    1.362880   -0.491160
H      2.653026    2.309467    0.506037
H      1.320983   -1.538157   -0.620242
H      0.569408   -0.493483   -1.868700
H     -1.163341   -1.652713   -0.537849
H      0.063480   -1.975217    1.597210
H     -0.042494   -0.193597    1.944991
H     -2.821666    2.209158   -0.652381
20

C      0.801514    0.476548   -2.089099
C      0.749648   -0.264562   -0.974545
C      2.033837   -0.749815   -0.361533
C      2.343331   -0.028182    0.943556
C     -0.578717   -0.634182   -0.355533
C     -1.260274    0.588505    0.272036
C     -2.578597    0.203229    0.936507
H      1.755062    0.736529   -2.539374
H     -0.107578    0.828389   -2.567311
H      1.998484   -1.848800   -0.202402
H      1.573364   -0.262217    1.708916
H      2.377461    1.069036    0.774983
H      3.332932   -0.361033    1.319338
H     -1.236550   -1.078339   -1.134609
H     -0.421655   -1.405730    0.429872
H     -0.591186    1.040291    1.036330
H     -1.464789    1.351878   -0.509561
H     -2.400980   -0.535647    1.746813
H     -3.050635    1.106469    1.377312
H     -3.274671   -0.232368    0.188302
20

C     -0.923372    0.959369    1.598330
C     -0.594037    0.213395    0.535468
C      0.778314   -0.395861    0.465733
C      1.725742    0.456443   -0.377837
C      3.139204   -0.110535   -0.330414
C     -1.559454    0.041353   -0.613539
C     -2.726622   -0.861894   -0.224757
H     -1.895990    1.437631    1.663491
H     -0.221235    1.103764    2.414261
H      0.719263   -1.433638    0.071334
H      1.376222    0.480936   -1.432816
H      1.743220    1.495968    0.016015
H      3.817018    0.529124   -0.934074
H      3.156337   -1.139790   -0.748332
H      3.509379   -0.133235    0.716899
H     -1.943858    1.034066   -0.933849
H     -1.038250   -0.412876   -1.483877
H     -2.351516   -1.858210    0.093178
H     -3.312007   -0.408930    0.603274
H     -3.398358   -0.997079   -1.098488
20

C     -0.306270    1.827432    0.581177
C     -0.430614    0.572334    0.120178
C     -1.688728    0.155309   -0.606271
C     -2.848194   -0.035938    0.367153
C      0.687076   -0.420614    0.330408
C      1.889658   -0.060761   -0.542620
C      3.070327   -0.988735   -0.285203
H     -1.098975    2.555355    0.436567
H      0.591031    2.140743    1.106609
H     -1.521682   -0.798241   -1.151867
H     -1.959000    0.923289   -1.363487
H     -3.749988   -0.367012   -0.189677
H     -3.083234    0.917990    0.885322
H     -2.591650   -0.809898    1.121868
H      0.346164   -1.448509    0.079294
H      0.980954   -0.417842    1.402896
H      1.608883   -0.101268   -1.617820
H      3.384784   -0.921452    0.777591
H      2.796453   -2.038175   -0.525262
H      3.923006   -0.684008   -0.926856
18

C      2.891692   -0.544947   -0.696342
C      1.895316    0.246834   -1.101139
C      0.961021    0.900297   -0.126521
C     -0.155029   -0.020231    0.283535
C      0.033236   -0.922308    1.258865
C     -1.475467    0.063763   -0.440389
C     -2.560513    0.659436    0.452716
H      3.548602   -1.006434   -1.426342
H      3.062595   -0.734518    0.358746
H      1.749006    0.422532   -2.162022
H      1.491032    1.347369    0.742788
H      0.983062   -0.989469    1.780135
H     -0.761532   -1.603244    1.547946
H     -1.370953    0.703291   -1.343866
H     -1.783465   -0.948889   -0.780419
H     -2.262621    1.673765    0.794504
H     -2.737402    0.011537    1.337286
H     -3.508580    0.741215   -0.119468
18

C      2.717698   -0.278571    0.311844
C      1.997095   -0.507008   -0.790088
C      0.706519    0.218722   -1.053170
C     -0.369626   -0.218493   -0.092195
C     -0.893235   -1.451852   -0.170330
C     -0.828266    0.740817    0.972653
C     -2.238982    1.253597    0.710328
H      2.386181    0.438772    1.056631
H      3.648176   -0.813071    0.472843
H      2.357401   -1.225253   -1.520606
H      0.373404    0.015292   -2.093853
H      0.879482    1.314134   -0.970474
H     -1.657558   -1.777597    0.528712
H     -0.559249   -2.149621   -0.932423
H     -0.754499    0.277581    1.980260
H     -2.289776    1.733721   -0.289814
H     -2.502670    2.007967    1.480255
H     -2.972095    0.420861    0.759438
16

C      3.336385   -0.587056    0.317081
C      2.189020   -0.801146    0.618669
C      0.793397   -1.061165    0.985720
C     -0.134294   -0.565416   -0.085116
C     -0.692103   -1.447786   -0.924890
C     -0.383240    0.916156   -0.248341
C     -1.805920    1.286543    0.161697
H      4.343501   -0.398854    0.052077
H      0.559262   -0.575529    1.956321
H     -0.498153   -2.511499   -0.822345
H     -1.345730   -1.117371   -1.726527
H      0.326744    1.492693    0.383601
H     -0.208224    1.213059   -1.305280
H     -1.988367    0.997028    1.218729
H     -2.545687    0.776713   -0.491231
H     -1.946591    2.383630    0.064123
16

C      3.090637    0.944520   -0.962924
C      2.167694    0.586622   -0.274792
C      1.044702    0.150917    0.563133
C     -0.104909   -0.315918   -0.294929
C     -0.013531   -1.452786   -0.998585
C     -1.395314    0.455131   -0.313710
C     -2.249263    0.142041    0.908123
H      3.900656    1.258557   -1.567206
H      0.732019    1.004680    1.200798
H      1.378645   -0.672019    1.230277
H     -0.848661   -1.804131   -1.597506
H      0.896813   -2.044709   -0.982991
H     -1.196276    1.546285   -0.380563
H     -1.723843    0.447142    1.837936
H     -3.206692    0.698727    0.838101
H     -2.472677   -0.945059    0.949127
18

C      1.665589   -1.259662   -0.812220
C      1.705771    0.048229   -0.557559
C      0.854354    0.726600    0.453477
C      1.001230    2.038754    0.648940
C     -0.188762    0.001779    1.266554
C     -1.599432    0.092734    0.675259
C     -1.767924   -0.771558   -0.571046
H      0.995655   -1.931778   -0.297617
H      2.322030   -1.678385   -1.563954
H      2.411985    0.644548   -1.124246
H      0.392210    2.563306    1.375398
H      1.730418    2.612043    0.089438
H      0.098858   -1.031652    1.550318
H     -2.321989   -0.249337    1.446214
H     -1.841314    1.149655    0.430869
H     -1.108475   -0.409609   -1.387285
H     -2.820050   -0.713852   -0.921005
H     -1.530152   -1.831815   -0.341522
18

C      2.424840   -0.321325    0.350074
C      1.932313    0.620944   -0.454660
C      0.501694    0.713951   -0.847085
C      0.089602    1.795518   -1.517499
C     -0.506783   -0.348690   -0.474010
C     -1.090994   -0.062887    0.910252
C     -2.157746   -1.081453    1.292303
H      1.807271   -1.091891    0.788314
H      3.479427   -0.319055    0.593501
H      2.623127    1.367937   -0.829270
H     -0.948335    1.913852   -1.803621
H      0.780196    2.585055   -1.788097
H     -0.038974   -1.355474   -0.498071
H     -1.331135   -0.370052   -1.221097
H     -0.289923   -0.055962    1.680576
H     -2.987601   -1.061507    0.554820
H     -2.566464   -0.827080    2.292252
H     -1.720516   -2.101881    1.331330
16

C      2.671565    1.473805   -0.912955
C      2.008816    0.560953   -0.487707
C      1.214113   -0.529247    0.020151
C      1.742388   -1.396876    0.880408
C     -0.219165   -0.663804   -0.393783
C     -1.104656    0.366172    0.307349
C     -2.571608    0.124882   -0.026625
H      3.253180    2.275231   -1.286235
H      2.773700   -1.306802    1.200398
H      1.149423   -2.211367    1.278220
H     -0.309398   -0.577934   -1.498724
H     -0.969810    0.286700    1.408101
H     -0.819524    1.391617   -0.014198
H     -3.201189    0.870700    0.502891
H     -2.740781    0.229211   -1.119699
H     -2.877055   -0.893240    0.296697
16

C      2.824619    1.215733   -1.431647
C      2.083397    0.560341   -0.742799
C      1.195534   -0.222742    0.080055
C      1.653874   -0.770594    1.207295
C     -0.227508   -0.436528   -0.357837
C     -1.192663    0.272905    0.593337
C     -2.646348   -0.003080    0.229889
H      3.475204    1.791066   -2.036336
H      2.681231   -0.626322    1.520217
H      1.006493   -1.372254    1.833361
H     -0.375672   -0.043315   -1.388125
H     -0.443708   -1.527198   -0.374987
H     -1.005675    1.369032    0.583257
H     -3.309933    0.517020    0.951554
H     -2.866075    0.368860   -0.793503
H     -2.852770   -1.092924    0.280557
20

C      3.322400    0.111704    0.883476
C      1.858871   -0.118989    0.683705
C      1.263893    0.227153   -0.467900
C     -0.214502    0.021904   -0.718014
C     -0.565706   -1.473447   -0.681889
C     -1.057471    0.848974    0.278244
C     -2.531479    0.929495   -0.119984
H      3.904384   -0.489965    0.153830
H      3.615646   -0.180673    1.913389
H      1.282997   -0.561156    1.491283
H      1.859043    0.674458   -1.260206
H     -0.423967    0.392913   -1.745986
H     -0.492125   -1.875216    0.351067
H      0.126069   -2.044330   -1.337925
H     -1.596346   -1.639467   -1.058055
H     -0.981938    0.419610    1.300972
H     -0.659220    1.887007    0.317257
H     -3.014784   -0.066322   -0.043009
H     -3.061382    1.623399    0.566140
H     -2.634382    1.312949   -1.157301
20

C      3.485811   -0.012761    0.188615
C      2.126767   -0.049581   -0.432870
C      1.021590   -0.203580    0.303691
C     -0.340762   -0.234968   -0.340785
C     -1.004075   -1.586892   -0.047518
C     -1.179718    0.948083    0.185129
C     -2.492772    1.129989   -0.577136
H      4.246788    0.122030   -0.607171
H      3.685177   -0.965719    0.722733
H      3.554173    0.835121    0.902469
H      1.099237   -0.303543    1.383842
H     -0.231909   -0.134426   -1.445223
H     -1.952603   -1.688302   -0.614165
H     -1.215919   -1.695415    1.038114
H     -0.335794   -2.416227   -0.364985
H     -1.399770    0.813884    1.267247
H     -0.592070    1.886471    0.074714
H     -3.183599    0.284626   -0.379235
H     -2.988370    2.064642   -0.239680
H     -2.302181    1.206565   -1.668691
20

C      3.291014   -0.066891    0.547163
C      1.797609   -0.120874    0.543503
C      1.132691   -0.246532   -0.611763
C     -0.372615   -0.308953   -0.709495
C     -0.909166   -1.551176    0.017655
C     -1.008348    0.999408   -0.189831
C     -2.489629    1.119035   -0.549147
H      3.640381    0.804096   -0.046711
H      3.705261   -1.001083    0.112370
H      3.659246    0.038170    1.589101
H      1.261923   -0.057025    1.486036
H     -0.612876   -0.414631   -1.789855
H     -1.982761   -1.704941   -0.216835
H     -0.792944   -1.449092    1.117695
H     -0.360304   -2.457468   -0.317435
H     -0.895883    1.073380    0.913850
H     -0.478235    1.866525   -0.642388
H     -3.088213    0.356326   -0.009572
H     -2.861388    2.122182   -0.251557
H     -2.635762    0.999545   -1.643694
20

C      3.250658   -0.019415    0.825767
C      1.766221   -0.176605    0.939468
C      0.985085   -0.136806   -0.145211
C     -0.502640   -0.294284   -0.015669
C     -0.967142   -1.548597   -0.761297
C     -1.222269    0.980538   -0.485959
C     -2.674412    1.017100   -0.017091
H      3.494063    0.968163    0.379993
H      3.669407   -0.826417    0.188065
H      3.712249   -0.082066    1.833354
H      1.325912   -0.324569    1.922074
H      1.421325    0.012185   -1.130058
H     -2.038179   -1.747326   -0.554252
H     -0.389085   -2.430886   -0.412831
H     -0.820775   -1.431765   -1.856661
H     -0.707790    1.869404   -0.058390
H     -1.183035    1.063855   -1.594261
H     -2.729553    0.860904    1.081443
H     -3.115473    2.007591   -0.256924
H     -3.274566    0.238995   -0.532466
20

C     -0.908167    2.197483   -0.538473
C     -0.666201    0.822752    0.081533
C      0.718766    0.355708   -0.296505
C      1.635720    0.038360    0.628650
C      2.996421   -0.441505    0.229298
C     -1.734500   -0.180052   -0.395067
C     -1.643368   -1.515701    0.343557
H     -0.897325    2.146710   -1.648942
H     -1.875594    2.620539   -0.193072
H     -0.751064    0.939753    1.185409
H      0.964295    0.254659   -1.351246
H      1.400746    0.121406    1.686151
H      3.600938   -0.651580    1.136307
H      2.908954   -1.373806   -0.367739
H      3.510962    0.336720   -0.373053
H     -1.633276   -0.358960   -1.488428
H     -2.745889    0.245143   -0.212583
H     -0.675485   -2.016014    0.129253
H     -1.741362   -1.359101    1.438861
H     -2.464574   -2.182515    0.006089
20

C     -2.941463    0.694462    0.306630
C     -1.456965    0.988425    0.514584
C     -0.534821   -0.118775   -0.029888
C     -0.657802   -1.400444    0.805447
C      0.898106    0.362364   -0.015246
C      1.850605   -0.256937   -0.727738
C      3.265263    0.233071   -0.713674
H     -3.535445    1.579589    0.616137
H     -3.260825   -0.165441    0.929531
H     -3.151167    0.481849   -0.763145
H     -1.220210    1.956479    0.019728
H     -0.824064   -0.338442   -1.082263
H     -1.671671   -1.839006    0.703226
H      0.067103   -2.165299    0.453947
H     -0.459661   -1.187323    1.878108
H      1.161462    1.240696    0.570450
H      1.603187   -1.127490   -1.329234
H      3.891821   -0.412303   -1.364172
H      3.667643    0.198739    0.320796
H      3.308906    1.275788   -1.093221
20

C     -1.909005    1.415422    0.458389
C     -1.741593   -0.093601    0.604802
C     -0.614023   -0.626267   -0.296986
C     -0.556107   -2.155221   -0.234040
C      0.719795   -0.055993    0.128669
C      1.450317    0.719078   -0.685416
C      2.764720    1.279302   -0.238367
H     -2.199142    1.675155   -0.581912
H     -2.690611    1.780529    1.157361
H     -2.703168   -0.581159    0.332037
H     -1.523751   -0.331492    1.669163
H     -0.840926   -0.344605   -1.350507
H     -0.360174   -2.500046    0.804459
H     -1.518191   -2.589820   -0.580206
H      0.251975   -2.533815   -0.896311
H      1.085149   -0.277669    1.128782
H      1.095322    0.953895   -1.685030
H      3.463373    0.453081    0.011583
H      3.207962    1.890463   -1.052163
H      2.618078    1.922764    0.654783
20

C      2.670582    0.570470   -0.450763
C      2.226817   -0.210168    0.749338
C      0.982736   -0.698735    0.889829
C     -0.127810   -0.485100   -0.118624
C     -1.042502   -1.718074   -0.136262
C     -0.906518    0.799445    0.237411
C     -1.874271    1.230027   -0.865198
H      3.759303    0.777166   -0.387430
H      2.122709    1.534087   -0.504234
H      2.953653   -0.404978    1.532590
H      0.751540   -1.239887    1.803915
H      0.308256   -0.383163   -1.136930
H     -0.440968   -2.636021   -0.311336
H     -1.582201   -1.824435    0.829471
H     -1.783686   -1.644049   -0.958650
H     -1.469990    0.656881    1.185726
H     -0.188723    1.633041    0.399158
H     -2.704376    0.501192   -0.968271
H     -2.313381    2.216401   -0.605744
H     -1.341171    1.325901   -1.834903
20

C      2.352473    0.034989    0.265538
C      1.688261    0.054146   -1.078916
C      0.399440   -0.249252   -1.316747
C     -0.697930   -0.621024   -0.337296
C     -0.323852   -1.806650    0.561186
C     -1.197287    0.580165    0.492615
C     -1.760411    1.701375   -0.381579
H      1.822655    0.687606    0.985080
H      2.413138   -1.003225    0.649014
H      3.390546    0.414850    0.163740
H      2.300452    0.318152   -1.935088
H     -1.551035   -0.963950   -0.963104
H      0.313320   -1.485653    1.409993
H      0.202123   -2.591285   -0.023823
H     -1.245990   -2.255338    0.988658
H     -2.007751    0.236629    1.172368
H     -0.387505    0.989128    1.128545
H     -2.580226    1.316540   -1.024678
H     -2.166977    2.506909    0.265593
H     -0.963446    2.135887   -1.021100
20

C      2.558977    0.238719   -0.717973
C      2.104546    0.581568    0.670637
C      0.854879    0.355601    1.100530
C     -0.197299   -0.259655    0.217333
C     -0.683901   -1.581934    0.816233
C     -1.338595    0.737648   -0.038753
C     -2.199750    0.317547   -1.226752
H      2.451259   -0.852387   -0.894358
H      1.955163    0.797397   -1.464057
H      3.626404    0.516992   -0.841639
H      2.818917    1.032124    1.353401
H      0.589605    0.632791    2.117133
H      0.182876   -2.248260    1.012843
H     -1.226693   -1.405452    1.769662
H     -1.354171   -2.105413    0.104796
H     -1.973881    0.844442    0.867727
H     -0.906253    1.735617   -0.272649
H     -2.774118   -0.602196   -0.991397
H     -2.923999    1.125628   -1.462491
H     -1.563965    0.139222   -2.120226
20

C     -0.740278    1.572943   -1.372419
C     -0.929067    0.675551   -0.148785
C      0.107206    0.960099    0.929158
C      1.427339    0.685399    0.900565
C      2.151994   -0.039629   -0.194393
C     -1.064162   -0.804664   -0.559596
C     -1.264027   -1.734838    0.637204
H      0.110121    1.260405   -2.008627
H     -0.635074    2.638818   -1.076963
H     -1.911556    0.970879    0.281780
H     -0.263005    1.461038    1.819857
H      2.021744    0.998141    1.754657
H      3.241023   -0.024334    0.020394
H      1.838446   -1.101740   -0.226607
H      1.998484    0.449433   -1.174092
H     -0.191866   -1.139551   -1.154456
H     -1.951868   -0.905337   -1.222214
H     -1.451631   -2.767928    0.276083
H     -0.357371   -1.748931    1.277637
H     -2.136454   -1.405752    1.240817
20

C      2.752030   -0.233550    0.530731
C      1.705657    0.537667   -0.271543
C      0.289133   -0.052456   -0.150137
C      0.192787   -1.410428   -0.855278
C     -0.700959    0.904735   -0.779849
C     -1.960871    1.086136   -0.344479
C     -2.535509    0.398545    0.859884
H      3.721043    0.305299    0.479288
H      2.901217   -1.246908    0.105952
H      2.445889   -0.314168    1.595335
H      1.706629    1.595135    0.074573
H      0.060550   -0.187198    0.928983
H      0.540604   -1.330200   -1.907909
H      0.805437   -2.169789   -0.326945
H     -0.857254   -1.772878   -0.854793
H     -0.397501    1.433026   -1.680360
H     -2.603073    1.767949   -0.894559
H     -1.984686    0.705096    1.773668
H     -2.480470   -0.703256    0.737970
H     -3.600655    0.687243    0.979469
20

C     -2.036765    0.942934   -1.269407
C     -1.831003   -0.231903   -0.317781
C     -0.336590   -0.481541   -0.039647
C     -0.154055   -1.782969    0.747758
C      0.264811    0.668137    0.745754
C      1.520401    1.121714    0.582475
C      2.477733    0.579053   -0.438167
H     -1.709802    1.893629   -0.797792
H     -3.110170    1.026938   -1.540800
H     -2.379960   -0.042326    0.631017
H     -2.272312   -1.134558   -0.793827
H      0.172896   -0.600817   -1.020364
H     -0.682474   -1.728111    1.724187
H     -0.557136   -2.641565    0.169352
H      0.924569   -1.971191    0.935288
H     -0.333202    1.112442    1.537193
H      1.865953    1.925346    1.226379
H      2.634319   -0.508297   -0.279009
H      3.456070    1.094415   -0.341049
H      2.086717    0.758669   -1.461561
18

C     -1.394727    1.308824   -0.581033
C     -0.696556   -0.037233   -0.783684
C     -1.625958   -1.189137   -0.474660
C     -2.153516   -1.390695    0.739063
C      0.569919   -0.112479    0.035829
C      1.623451    0.669917   -0.239636
C      2.878550    0.587621    0.572551
H     -2.299945    1.382915   -1.220801
H     -1.668107    1.472423    0.483229
H     -0.417195   -0.114709   -1.857420
H     -1.875419   -1.882803   -1.272458
H     -1.927068   -0.727076    1.567600
H     -2.816121   -2.232994    0.909049
H      0.637567   -0.820772    0.858592
H      1.576153    1.378263   -1.062484
H      2.659437    0.830058    1.633893
H      3.623871    1.313259    0.185030
H      3.305666   -0.435382    0.507341
18

C      3.014813    0.018998   -0.285546
C      1.534526   -0.046353   -0.484348
C      0.709101   -0.313746    0.540020
C     -0.792618   -0.383387    0.376673
C     -1.190014   -1.557381   -0.525296
C     -1.344897    0.919390   -0.154133
C     -1.323619    2.035889    0.580291
H      3.397802   -0.958865    0.075265
H      3.270205    0.818218    0.441881
H      1.138834    0.133084   -1.479084
H      1.124791   -0.481120    1.530366
H     -1.242685   -0.570496    1.376988
H     -0.785957   -2.507538   -0.114707
H     -0.801685   -1.418564   -1.557064
H     -2.296928   -1.642249   -0.571383
H     -1.779219    0.958244   -1.149708
H     -0.902639    2.037445    1.581247
H     -1.729811    2.958434    0.178550
18

C      0.551793    0.917510    1.456361
C      0.702477   -0.463857    0.811558
C      1.428847   -0.467436   -0.519017
C      1.698714    0.628449   -1.241454
C     -0.630897   -1.173579    0.705724
C     -1.695216   -0.755738   -0.007647
C     -1.727099    0.491010   -0.842923
H      0.023384    0.837129    2.430407
H      1.549221    1.375525    1.628477
H      1.331871   -1.062411    1.505989
H      1.734092   -1.429838   -0.920002
H      1.402457    1.619847   -0.916817
H      2.216821    0.532890   -2.190088
H     -0.738165   -2.100704    1.262372
H     -2.596546   -1.361494    0.020676
H     -1.009550    0.409284   -1.683315
H     -1.499759    1.384639   -0.227343
H     -2.742445    0.618774   -1.272958
18

C      2.161221   -1.372333   -0.390403
C      1.844360    0.049950   -0.740337
C      0.656230    0.622605   -0.483978
C     -0.513143   -0.103783    0.146210
C     -1.416506   -0.675826   -0.949780
C     -1.290271    0.842978    1.029181
C     -0.786610    1.288212    2.184560
H      3.228357   -1.587590   -0.607074
H      1.525768   -2.061422   -0.984760
H      2.619888    0.648486   -1.209399
H      0.511760    1.653969   -0.796113
H     -0.160976   -0.948069    0.779194
H     -0.850223   -1.395845   -1.577925
H     -1.807146    0.135864   -1.601459
H     -2.274485   -1.215131   -0.494004
H     -2.283949    1.170269    0.733951
H     -1.364955    1.965432    2.804561
H      0.200681    0.982235    2.517587
16

C     -2.138503    1.269892   -1.681481
C     -1.718836    0.659509   -0.729946
C     -1.206372   -0.082357    0.430207
C     -2.023419   -1.357880    0.611800
C      0.256981   -0.398413    0.243561
C      1.186850    0.567905    0.264635
C      2.638834    0.245003    0.094059
H     -2.506567    1.805532   -2.516634
H     -1.335673    0.544411    1.338816
H     -1.712688   -1.892754    1.534724
H     -1.919506   -2.033309   -0.265518
H      0.569409   -1.432666    0.115368
H      0.892596    1.604448    0.406493
H      3.238229    1.178130    0.141293
H      2.972805   -0.437793    0.903668
H      2.805860   -0.239656   -0.891044
16

C     -1.548708    2.611036   -0.164791
C     -1.190868    1.488942    0.093875
C     -0.754944    0.122110    0.410319
C     -1.837897   -0.880132    0.011606
C      0.524468   -0.175246   -0.328154
C      1.634725   -0.566897    0.311213
C      2.882949   -0.875876   -0.451631
H     -1.862746    3.595742   -0.391962
H     -0.602265    0.057397    1.510211
H     -2.778509   -0.667958    0.564303
H     -1.511991   -1.911624    0.265640
H     -2.043295   -0.827989   -1.080088
H      0.532941   -0.088465   -1.412700
H      1.639155   -0.677338    1.392086
H      3.670692   -1.239903    0.240584
H      3.246294    0.036201   -0.970512
16

C     -2.772984    1.832531   -0.249768
C     -1.876009    1.061735   -0.014126
C     -0.783380    0.124477    0.273754
C     -1.357421   -1.276874    0.452102
C      0.217454    0.145069   -0.859004
C      1.536846   -0.065348   -0.703224
C      2.193979   -0.295491    0.626711
H     -3.560128    2.508889   -0.456725
H     -0.316647    0.446932    1.227503
H     -0.568300   -1.989502    0.771963
H     -1.830732   -1.641376   -0.485839
H     -0.155375    0.277702   -1.872089
H      2.166597   -0.068070   -1.588282
H      2.071312    0.598443    1.273365
H      1.755350   -1.184663    1.125111
H      3.279438   -0.474454    0.478550
16

C      2.121848    1.035247    1.180316
C      1.519050    0.435672    0.325252
C      0.784394   -0.296301   -0.718742
C      0.443517   -1.716341   -0.257858
C     -0.445562    0.467073   -1.165641
C     -1.457560    0.851470   -0.366186
C     -1.487494    0.591729    1.106466
H      2.650251    1.561538    1.931045
H      1.461850   -0.385491   -1.595371
H     -0.162697   -1.710017    0.671626
H     -0.123369   -2.247933   -1.051869
H      1.378091   -2.284530   -0.061242
H     -0.511379    0.726604   -2.218632
H     -2.288086    1.398516   -0.802261
H     -1.482400    1.555408    1.656410
H     -2.400455    0.017357    1.366687
18

C      3.372944    0.633237    0.904653
C      2.062259    0.199157    0.421988
C      0.981422   -0.157877    0.024506
C     -0.339563   -0.592021   -0.461543
C     -0.504951   -2.093458   -0.212156
C     -1.465952    0.200542    0.229790
C     -1.459876    1.679588   -0.159978
H      4.166743    0.189164    0.269203
H      3.436676    1.739935    0.856525
H     -0.385456   -0.416004   -1.558531
H     -1.478723   -2.443212   -0.616694
H     -0.467445   -2.318554    0.876097
H      0.303088   -2.659494   -0.724384
H     -2.450041   -0.225990   -0.064372
H     -1.375114    0.112339    1.335299
H     -1.556579    1.789248   -1.261114
H     -0.522252    2.169767    0.177147
H     -2.317181    2.193632    0.323574
18

C      3.114283    0.984517   -0.448908
C      1.829215    0.405987   -0.057279
C      0.769480   -0.070229    0.264728
C     -0.525985   -0.649782    0.657789
C     -0.469693   -2.174119    0.561718
C     -1.674677   -0.074718   -0.185378
C     -1.929989    1.394028    0.145339
H      3.753275    1.108685    0.449510
H      3.618716    0.310170   -1.171191
H      2.945535    1.973662   -0.922268
H     -0.298150   -2.495778   -0.488499
H      0.350689   -2.565344    1.200571
H     -1.424140   -2.611445    0.923200
H     -1.450898   -0.180587   -1.270091
H     -2.608151   -0.639499    0.028688
H     -2.806090    1.757624   -0.431968
H     -2.143851    1.512182    1.229085
H     -1.049569    2.014644   -0.125035
18

C     -0.494762    1.847433    0.337547
C     -0.424345    0.323825    0.445535
C      0.983477   -0.093118    0.367277
C      2.137762   -0.436051    0.303480
C      3.537963   -0.852014    0.225503
C     -1.224134   -0.364231   -0.677142
C     -2.735314   -0.195458   -0.514749
H     -1.529782    2.208791    0.508083
H      0.162479    2.324999    1.096396
H     -0.819301    0.009056    1.435978
H      3.632178   -1.703244   -0.479787
H      4.156288   -0.003863   -0.133945
H      3.887616   -1.164473    1.230989
H     -1.005058   -1.455480   -0.667869
H     -0.914803    0.034397   -1.668835
H     -3.058655   -0.533855    0.492580
H     -3.032748    0.862993   -0.663574
H     -3.258861   -0.809708   -1.277455
18

C      3.636905    0.109793    0.186768
C      2.191478    0.073809   -0.034904
C      0.999883    0.043765   -0.217231
C     -0.451100    0.006709   -0.439991
C     -0.923739   -1.448437   -0.523394
C     -1.142586    0.771786    0.696571
C     -2.594718    1.127737    0.391793
H      4.124473    0.664388   -0.641206
H      4.031787   -0.926436    0.220647
H      3.850958    0.618649    1.149107
H     -0.656546    0.511514   -1.408707
H     -0.369604   -1.985339   -1.323447
H     -0.756326   -1.974070    0.441732
H     -2.003812   -1.491556   -0.774542
H     -1.067025    0.226204    1.663093
H     -3.221162    0.213033    0.345160
H     -2.984953    1.781386    1.199130
H     -2.663914    1.677065   -0.570567
18

C     -2.745407    1.056257   -0.066956
C     -1.253862    0.982841    0.244792
C     -0.579972   -0.220147   -0.440955
C     -1.024464   -1.557178    0.164742
C      0.881624   -0.096584   -0.323027
C      2.079236    0.004919   -0.226514
C      3.532013    0.128100   -0.108734
H     -3.154282    2.031739    0.271225
H     -3.296658    0.245096    0.452448
H     -0.787741    1.922622   -0.126151
H     -1.105260    0.939991    1.346478
H     -0.833544   -0.214413   -1.523652
H     -0.836211   -1.576034    1.260113
H     -0.468516   -2.396018   -0.307449
H     -2.105054   -1.728942   -0.019608
H      3.990123    0.083441   -1.118178
H      3.783481    1.097368    0.368896
H      3.924495   -0.703059    0.512538
16

C     -0.901680    1.859409    0.641530
C     -0.658355    0.662836   -0.270618
C      0.722777    0.195395   -0.109591
C      1.858062   -0.189281    0.022044
C      3.235025   -0.656226    0.182285
C     -1.610144   -0.454611    0.067689
C     -2.526687   -0.890608   -0.801832
H     -0.785516    1.582956    1.712445
H     -1.916545    2.278604    0.471998
H     -0.788051    0.993417   -1.324226
H      3.813575   -0.424064   -0.735443
H      3.236339   -1.752487    0.352763
H      3.699720   -0.146409    1.051190
H     -1.563316   -0.909718    1.053785
H     -3.201844   -1.692264   -0.520672
H     -2.613358   -0.456950   -1.793345
16

C      3.462153    0.741463    0.604219
C      2.073120    0.305361    0.462931
C      0.928059   -0.053980    0.345973
C     -0.466730   -0.492185    0.203828
C     -0.575667   -1.547082   -0.896878
C     -1.329589    0.697056   -0.129491
C     -2.378391    1.043621    0.622981
H      3.525805    1.835439    0.430969
H      4.093428    0.212087   -0.138816
H     -0.781453   -0.952562    1.166291
H     -1.628915   -1.887958   -0.992653
H      0.052453   -2.428954   -0.645816
H     -0.241999   -1.135324   -1.874552
H     -1.105868    1.280495   -1.019006
H     -2.983437    1.901019    0.346716
H     -2.642967    0.481504    1.513304
14

C      0.470919    3.085161    0.034669
C     -0.139383    2.070925    0.265551
C     -0.881672    0.838361    0.547751
C     -2.131631    0.776956   -0.321370
C     -0.021398   -0.322793    0.291615
C      0.684734   -1.277569    0.081683
C      1.541291   -2.435545   -0.173583
H      1.006521    3.975080   -0.168080
H     -1.180871    0.838010    1.616713
H     -1.872730    0.744781   -1.402633
H     -2.749461   -0.108303   -0.057819
H      0.996254   -3.166637   -0.805531
H      2.461400   -2.106352   -0.698893
H      1.816027   -2.912075    0.789929
14

C     -0.695838    2.781189    0.066817
C     -0.734061    1.596786    0.290448
C     -0.781946    0.155160    0.563810
C     -1.778372   -0.530036   -0.370092
C      0.558365   -0.417004    0.388002
C      1.659051   -0.888101    0.243883
C      2.994135   -1.459420    0.068479
H     -0.662247    3.820508   -0.129589
H     -1.101014    0.001255    1.616275
H     -1.823145   -1.618172   -0.148432
H     -2.794637   -0.105271   -0.221994
H     -1.483530   -0.392515   -1.433689
H      3.691307   -0.670120   -0.280532
H      2.951932   -2.274261   -0.683255
20

C      2.802484    0.414270   -0.669110
C      1.354913    0.035853   -0.796592
C      0.605864   -0.381447    0.245722
C      1.177634   -0.522758    1.631403
C     -0.838098   -0.749569    0.032860
C     -1.710296    0.479953   -0.222386
C     -3.182552    0.089837   -0.262264
H      3.394866   -0.453558   -0.310852
H      2.914921    1.262766    0.037909
H      3.195162    0.725287   -1.659736
H      0.902670    0.106450   -1.782463
H      1.544937    0.460653    1.992740
H      0.403788   -0.886053    2.340646
H      2.014242   -1.252594    1.625861
H     -0.936789   -1.493732   -0.787657
H     -1.557399    1.220584    0.592564
H     -1.430705    0.950846   -1.189611
H     -3.483822   -0.373201    0.701715
H     -3.802818    0.995102   -0.431881
H     -3.369003   -0.628691   -1.088868
20

C      3.169015    0.387891    0.320900
C      1.662779    0.464179    0.537427
C      0.908734   -0.490085   -0.389603
C     -0.583179   -0.318015   -0.218949
C     -1.389491   -1.415890    0.434023
C     -1.171657    0.811938   -0.668506
C     -2.645461    1.077422   -0.553018
H      3.418721    0.657677   -0.726858
H      3.539283   -0.636563    0.538477
H      3.674070    1.104660    1.001193
H      1.424665    0.235503    1.599270
H      1.181032   -0.285250   -1.448222
H      1.214735   -1.534402   -0.163720
H     -0.744068   -2.260642    0.752645
H     -2.143737   -1.808242   -0.279912
H     -1.904015   -1.022712    1.335792
H     -0.561009    1.578022   -1.139892
H     -3.218632    0.300622   -1.101127
H     -2.950313    1.085985    0.514380
H     -2.881470    2.067902   -0.995207
20

C     -2.007181   -1.334949    0.346340
C     -1.864101    0.155628    0.228581
C     -0.768127    0.767939   -0.268089
C     -0.758177    2.265758   -0.387979
C      0.454590    0.012448   -0.727740
C      1.422555   -0.273402    0.420249
C      2.716425   -0.876853   -0.111727
H     -1.921246   -1.809720   -0.653224
H     -1.236568   -1.747462    1.027939
H     -3.006636   -1.579147    0.763158
H     -2.709575    0.762196    0.543798
H     -0.886742    2.724572    0.615223
H     -1.585247    2.597080   -1.051070
H      0.202236    2.622587   -0.817328
H      0.196699   -0.900895   -1.305265
H      1.661074    0.674721    0.949424
H      0.964534   -0.976901    1.146014
H      3.198794   -0.180154   -0.830311
H      3.415807   -1.059828    0.731129
H      2.510885   -1.843619   -0.619122
20

C      2.793730    0.061063   -0.733867
C      1.342308    0.511573   -0.625084
C      0.607847   -0.215305    0.501595
C     -0.802623    0.319689    0.634254
C     -1.039066    1.541225    1.483770
C     -1.852708   -0.223994   -0.019883
C     -1.752633   -1.429638   -0.910182
H      3.292752    0.625069   -1.549048
H      2.844668   -1.024483   -0.963998
H      3.329763    0.264121    0.217120
H      0.827878    0.349135   -1.596509
H      1.151404   -0.050212    1.456949
H      0.613164   -1.310743    0.320091
H     -0.091397    1.915495    1.925305
H     -1.476833    2.352596    0.864261
H     -1.739216    1.294541    2.309737
H     -2.836111    0.225339    0.095484
H     -1.031277   -1.245011   -1.732773
H     -2.745939   -1.645223   -1.356448
H     -1.435711   -2.315239   -0.320773
20

C      3.092648    0.044828   -0.529088
C      1.889777   -0.582843    0.162917
C      0.659316    0.276369    0.036224
C     -0.561022   -0.144674    0.429849
C     -0.755631   -1.513387    1.037653
C     -1.752421    0.773062    0.265221
C     -2.193581    0.844090   -1.194048
H      2.876713    0.193464   -1.608294
H      3.340969    1.021725   -0.061808
H      3.966424   -0.632476   -0.431935
H      2.122565   -0.754875    1.235694
H      0.759364    1.267054   -0.402095
H     -1.824740   -1.709810    1.262143
H     -0.181226   -1.591664    1.984587
H     -0.406060   -2.294034    0.329359
H     -2.608573    0.415625    0.876552
H     -1.496734    1.792589    0.627987
H     -2.462424   -0.168806   -1.563046
H     -3.083416    1.502455   -1.281595
H     -1.381948    1.261308   -1.827183
20

C      2.813661    0.456302   -0.702819
C      1.931278   -0.704604   -0.259802
C      0.594189   -0.235695    0.249452
C      0.331790   -0.333546    1.729259
C     -0.324891    0.239098   -0.620734
C     -1.708533    0.695587   -0.232055
C     -2.695665   -0.466413   -0.270108
H      3.809628    0.066234   -0.998248
H      2.947009    1.174161    0.134005
H      2.362570    0.980164   -1.571903
H      1.806831   -1.445687   -1.078840
H      1.204411   -0.778175    2.253354
H      0.158102    0.678015    2.152029
H     -0.550011   -0.977061    1.924759
H     -0.076908    0.276927   -1.678485
H     -1.714512    1.170442    0.771329
H     -2.042806    1.465164   -0.960391
H     -2.402401   -1.256113    0.452188
H     -3.709348   -0.100946   -0.002262
H     -2.734392   -0.903853   -1.290728
22

C     -2.938246    0.110210    0.135749
C     -1.532646    0.562297    0.519862
C     -0.451677   -0.125612   -0.346353
C     -0.387521   -1.635307   -0.040983
C      0.928695    0.590464   -0.205378
C      1.914034    0.161345   -1.304140
C      1.575460    0.420470    1.179777
H     -3.170061    0.405729   -0.909577
H     -3.684798    0.569151    0.817623
H     -1.370633    0.331563    1.594257
H     -1.480235    1.665473    0.392568
H     -0.766307   -0.017177   -1.409094
H     -0.164675   -1.817946    1.031045
H     -1.361225   -2.114227   -0.276628
H      0.381083   -2.135883   -0.663374
H      0.758448    1.680287   -0.354702
H      2.814108    0.812355   -1.279585
H      2.244788   -0.888540   -1.163054
H      1.447434    0.263390   -2.306906
H      2.498497    1.035670    1.241929
H      0.891132    0.764202    1.981838
H      1.854344   -0.637917    1.365127
22

C     -2.854972    0.226048    0.444789
C     -1.392292    0.554132    0.732856
C     -0.408177   -0.078057   -0.272112
C     -0.219848   -1.580466    0.010253
C      0.927196    0.723915   -0.288923
C      1.778009    0.397023   -1.526311
C      1.765818    0.554138    0.989518
H     -3.049977   -0.856819    0.587748
H     -3.119708    0.519253   -0.592736
H     -3.499385    0.796067    1.145643
H     -1.138336    0.289449    1.781935
H     -0.858497    0.016639   -1.285699
H      0.121549   -1.752798    1.052571
H     -1.178806   -2.119882   -0.134075
H      0.514317   -2.027118   -0.690015
H      0.665029    1.803399   -0.367545
H      2.640123    1.095240   -1.587517
H      2.174497   -0.638509   -1.481634
H      1.177831    0.515609   -2.453360
H      2.641193    1.237572    0.959020
H      1.171198    0.810771    1.890002
H      2.143238   -0.485605    1.085591
22

C     -2.613505    0.144308    0.737473
C     -1.472620    0.645798   -0.141496
C     -0.272417   -0.327220   -0.083913
C     -0.426632   -1.435713   -1.140852
C      1.100688    0.409966   -0.114767
C      2.281461   -0.516614   -0.456785
C      1.374314    1.063938    1.249740
H     -2.989580   -0.835105    0.375405
H     -3.450858    0.873198    0.711410
H     -2.267783    0.037819    1.787905
H     -1.196104    1.660289    0.210234
H     -1.832244    0.763837   -1.187371
H      0.276709   -2.268184   -0.934164
H     -1.449656   -1.864425   -1.113816
H     -0.237812   -1.030256   -2.157725
H      1.066339    1.207804   -0.889763
H      3.242467    0.036257   -0.382598
H      2.315037   -1.382005    0.239599
H      2.201852   -0.885005   -1.500956
H      0.604251    1.819159    1.503787
H      1.392157    0.294006    2.051083
H      2.353935    1.588148    1.237570
22

C      0.206576    0.069060    2.160242
C      0.274268    0.190634    0.631791
C      1.470811   -0.651414    0.100897
C      2.280611    0.087393   -0.966510
C     -1.092025   -0.225712    0.002599
C     -1.087514   -0.110163   -1.530759
C     -2.248659    0.624847    0.560310
H      1.114373    0.499638    2.634544
H      0.078570   -0.989772    2.472638
H      0.447526    1.267740    0.409231
H      2.178726   -0.896801    0.923711
H      1.121607   -1.625729   -0.303966
H      2.723614    1.011255   -0.537395
H      1.650233    0.361110   -1.835583
H      3.105534   -0.564731   -1.323286
H     -1.297866   -1.288461    0.261892
H     -0.389053   -0.845051   -1.980305
H     -0.799424    0.915856   -1.845106
H     -2.095814   -0.335431   -1.939505
H     -3.209757    0.330604    0.086761
H     -2.362564    0.471215    1.653687
H     -2.069774    1.703914    0.364117
22

C      1.793503   -0.188534   -0.930730
C      1.113219    1.033424   -0.312212
C     -0.034765    0.727599    0.685908
C      0.488211    0.151254    2.010952
C     -1.237126   -0.077608    0.113819
C     -1.799973    0.482102   -1.195865
C     -1.114946   -1.608767    0.099411
H      1.141973   -0.649000   -1.699876
H      2.726214    0.133673   -1.439947
H      2.064828   -0.938583   -0.161101
H      0.730396    1.677238   -1.133089
H      1.888652    1.633076    0.213151
H     -0.459118    1.720783    0.953666
H     -0.352028    0.021106    2.726088
H      1.221792    0.849273    2.467885
H      0.984734   -0.829116    1.863808
H     -2.795406    0.034415   -1.398375
H     -1.927149    1.582351   -1.118736
H     -1.124725    0.249380   -2.045240
H     -0.940406   -1.995545    1.123524
H     -2.066513   -2.055698   -0.257618
H     -0.301366   -1.952822   -0.565421
22

C     -2.008597   -0.380926   -1.235550
C     -0.773031   -0.616736   -0.360610
C     -1.210069   -1.117998    1.025029
C      0.125208    0.660114   -0.310995
C     -0.598241    1.867923    0.313615
C      1.481733    0.445102    0.405715
C      2.346183   -0.639063   -0.239292
H     -2.616835   -1.307196   -1.316957
H     -1.710041   -0.062519   -2.257084
H     -0.202355   -1.434441   -0.849708
H     -1.844081   -0.368178    1.542297
H     -0.330905   -1.356331    1.656857
H     -1.800141   -2.053415    0.918849
H      0.359671    0.940523   -1.362932
H      0.018283    2.783825    0.189509
H     -1.572487    2.051228   -0.185407
H     -0.770343    1.712718    1.399298
H      2.057544    1.396084    0.366138
H      1.330182    0.206481    1.479464
H      2.416807   -0.481829   -1.336520
H      3.369708   -0.598218    0.189522
H      1.931807   -1.647148   -0.031237
20

C      1.000677    0.963165    1.777396
C      0.677803   -0.046920    0.673823
C      1.433062    0.324672   -0.582800
C      2.100839   -0.583455   -1.301124
C     -0.853704   -0.184952    0.434341
C     -1.502097    1.083109   -0.148595
C     -1.168577   -1.394566   -0.458578
H      0.479897    0.702488    2.723267
H      0.757476    2.004540    1.479264
H      1.053300   -1.025763    1.048741
H      1.399204    1.350309   -0.939939
H      2.613442   -0.285514   -2.209892
H      2.138277   -1.624541   -0.995455
H     -1.335305   -0.381104    1.418504
H     -2.597283    0.931730   -0.257894
H     -1.083313    1.323807   -1.148354
H     -1.353842    1.949615    0.527305
H     -0.721400   -2.317133   -0.030962
H     -0.771111   -1.244089   -1.484791
H     -2.267346   -1.545398   -0.524257
20

C     -0.837090    1.121599   -1.082572
C     -0.899553   -0.240062   -0.381906
C     -2.132054   -0.310348    0.531844
C      0.412084   -0.598892    0.376320
C      0.847662    0.444452    1.420850
C      1.542950   -0.927364   -0.578599
C      2.162499   -0.011314   -1.332558
H     -1.689887    1.238423   -1.784741
H     -0.850209    1.957306   -0.351407
H     -1.046309   -1.008809   -1.173572
H     -3.056951   -0.179399   -0.069757
H     -2.104622    0.485236    1.305435
H     -2.187211   -1.300243    1.032601
H      0.213554   -1.538469    0.939064
H      1.763689    0.093402    1.942591
H      0.058343    0.583838    2.187546
H      1.070370    1.425005    0.952309
H      1.877136   -1.959034   -0.643976
H      2.969480   -0.311767   -1.992810
H      1.886120    1.036441   -1.296662
18

C      1.671283    2.176562    0.198233
C      1.317807    1.048896   -0.041197
C      0.885253   -0.328782   -0.335618
C      1.657476   -1.301501    0.555146
C     -0.648815   -0.506833   -0.171477
C     -1.143949   -0.171695    1.246692
C     -1.422313    0.314988   -1.213667
H      1.980923    3.166325    0.408577
H      1.159593   -0.552397   -1.389852
H      1.369967   -2.350200    0.328169
H      2.752526   -1.191611    0.399455
H     -0.889743   -1.576477   -0.363800
H     -0.617829   -0.793398    2.001092
H     -2.231024   -0.385236    1.329546
H     -0.977492    0.900531    1.484030
H     -1.087662    0.048446   -2.238814
H     -2.509605    0.098780   -1.140246
H     -1.266394    1.403602   -1.056271
18

C      2.552937    1.670391    0.650422
C      1.743182    0.917991    0.168730
C      0.753412   -0.001049   -0.420457
C      0.988447   -1.420374    0.118238
C     -0.685735    0.535165   -0.188703
C     -1.059697    0.597425    1.297528
C     -1.737906   -0.257456   -0.977277
H      3.263448    2.330746    1.073425
H      0.944711   -0.019962   -1.515734
H      0.865541   -1.459586    1.221099
H      0.290932   -2.142125   -0.353383
H      2.021515   -1.749709   -0.126083
H     -0.716974    1.578399   -0.577068
H     -1.990199    1.187274    1.439820
H     -1.204701   -0.417497    1.724100
H     -1.450628   -0.321635   -2.048308
H     -1.856985   -1.283798   -0.571549
H     -2.721300    0.255800   -0.914800
20

C      1.795845    0.564238   -1.389066
C      1.427190    0.164433   -0.163901
C      2.504121   -0.287183    0.783631
C     -0.034306    0.161866    0.264318
C     -0.602040    1.590093    0.246725
C     -0.856809   -0.805778   -0.616874
C     -2.250210   -1.083000   -0.051240
H      1.075481    0.902624   -2.126553
H      3.047511   -1.153053    0.349274
H      3.222370    0.541822    0.958318
H      2.085071   -0.596279    1.763559
H     -0.095879   -0.199764    1.314279
H     -0.708212    1.965465   -0.793202
H      0.070447    2.274342    0.807396
H     -1.595563    1.619671    0.740155
H     -0.959543   -0.401767   -1.647450
H     -0.319586   -1.777411   -0.686824
H     -2.180449   -1.448975    0.995100
H     -2.877062   -0.168038   -0.083211
H     -2.748377   -1.863307   -0.664433
20

C      2.188375    0.583619   -1.467662
C      1.412995    0.293068   -0.212424
C      1.990243    0.561390    0.969859
C      0.012399   -0.299992   -0.293483
C     -0.022030   -1.690237    0.361151
C     -1.023572    0.665040    0.327151
C     -2.465971    0.273818    0.003389
H      1.670698    0.214173   -2.377077
H      2.361012    1.676412   -1.563429
H      2.991109    0.980707    1.016934
H      1.475282    0.366979    1.904920
H     -0.252800   -0.437515   -1.364892
H      0.800007   -2.320937   -0.040364
H      0.089721   -1.616168    1.463695
H     -0.978994   -2.203700    0.133115
H     -0.851395    1.688293   -0.073943
H     -0.901488    0.710197    1.431156
H     -2.733428   -0.684545    0.494431
H     -2.607665    0.180843   -1.094294
H     -3.154500    1.058556    0.381768
20

C     -1.210988    0.996419   -1.507811
C     -1.147997    0.528903   -0.251069
C     -2.221862    0.890395    0.733391
C     -0.010582   -0.357138    0.204664
C     -0.013282   -1.705141   -0.525695
C      1.346174    0.367179    0.145757
C      2.384500   -0.310282    1.035418
H     -0.443716    0.750400   -2.235062
H     -2.032562    1.633145   -1.822360
H     -2.020811    0.426923    1.722594
H     -2.260519    1.992913    0.861244
H     -3.206062    0.528851    0.367325
H      0.284639   -1.579807   -1.588300
H     -1.028104   -2.154752   -0.485501
H      0.686703   -2.410122   -0.033267
H      1.720831    0.409550   -0.900101
H      1.219854    1.411421    0.507255
H      1.994692   -0.417993    2.070148
H      2.653325   -1.309790    0.635299
H      3.305767    0.308929    1.066071
20

C     -0.275641    1.592945   -1.533966
C      0.149242    0.346986   -0.752979
C      1.352450    0.655987    0.163495
C      1.908739   -0.602084    0.830810
C     -1.034824   -0.224342    0.015967
C     -1.649667    0.484940    0.978120
C     -1.532400   -1.614030   -0.286799
H      0.527142    1.909029   -2.233864
H     -0.522911    2.436382   -0.854847
H      0.487396   -0.393031   -1.510898
H      2.165610    1.110993   -0.443669
H      1.070122    1.391345    0.947439
H      2.807640   -0.338769    1.427065
H      1.154757   -1.048731    1.512693
H      2.199031   -1.350725    0.063310
H     -1.325208    1.487792    1.234985
H     -2.490496    0.067223    1.524135
H     -1.459497   -2.244950    0.624352
H     -2.592524   -1.569994   -0.614838
H     -0.938963   -2.096966   -1.090509
20

C     -1.843887    1.006535   -0.561928
C     -1.259092    0.003274    0.115481
C     -2.103935   -0.827425    1.046997
C      0.223039   -0.298221   -0.047856
C      0.543843   -0.704469   -1.493974
C      1.060693    0.909123    0.412220
C      2.521205    0.565083    0.690991
H     -2.902865    1.215273   -0.440795
H     -1.277243    1.631965   -1.243873
H     -1.509503   -1.620644    1.545765
H     -2.544978   -0.178189    1.832805
H     -2.923009   -1.314391    0.476467
H      0.484555   -1.162917    0.600308
H     -0.130423   -1.526784   -1.816073
H      0.419829    0.153172   -2.188642
H      1.587815   -1.073696   -1.569133
H      0.994350    1.754160   -0.307045
H      2.589463   -0.264852    1.425244
H      3.028387    1.454823    1.118190
H      3.041754    0.278180   -0.246057
20

C      1.682940    1.374127   -0.962877
C      1.537207    0.054407   -0.212323
C      0.265002    0.035290    0.657629
C      0.192382   -1.251813    1.488394
C     -0.997743    0.206027   -0.179228
C     -1.796828    1.266942    0.016007
C     -1.376655   -0.798522   -1.238963
H      2.580188    1.342797   -1.616114
H      1.780387    2.218989   -0.248354
H      1.522309   -0.778527   -0.946741
H      2.431724   -0.081292    0.434297
H      0.350224    0.873496    1.386648
H     -0.735464   -1.259599    2.099665
H      0.202693   -2.152451    0.839226
H      1.060904   -1.307792    2.178950
H     -2.698240    1.399667   -0.575269
H     -1.564527    2.017659    0.765034
H     -2.371342   -1.233474   -1.004917
H     -1.422015   -0.298891   -2.229763
H     -0.643145   -1.627039   -1.302208
18

C      1.133830    1.203207    1.094242
C      0.306340   -0.071992    0.900266
C      1.110443   -1.177283    0.254465
C      1.617616   -1.089464   -0.980687
C     -1.001477    0.173339    0.158359
C     -2.103714   -0.501815    0.523339
C     -1.093497    1.093565   -1.035499
H      1.925632    1.036412    1.855627
H      1.615579    1.542524    0.154293
H      0.057178   -0.414567    1.929895
H      1.276713   -2.090782    0.818316
H      1.480571   -0.202505   -1.588365
H      2.182799   -1.918950   -1.392901
H     -3.042085   -0.364543   -0.006388
H     -2.084804   -1.203247    1.352074
H     -0.121396    1.555614   -1.291137
H     -1.818300    1.907714   -0.823279
H     -1.441430    0.522773   -1.922620
18

C      1.779697   -0.554195    1.661500
C      1.031880   -0.187009    0.409497
C      1.721077    0.381706   -0.592773
C     -0.469110   -0.432696    0.323215
C     -0.887306   -1.165045   -0.960891
C     -1.255412    0.840399    0.548251
C     -1.312665    1.841580   -0.337922
H      2.494893   -1.376954    1.450253
H      1.098403   -0.858220    2.483396
H      1.243811    0.674997   -1.519851
H      2.788853    0.558176   -0.499812
H     -0.747839   -1.115492    1.155748
H     -1.968282   -1.417750   -0.915397
H     -0.712516   -0.547095   -1.865332
H     -0.313365   -2.111042   -1.060438
H     -1.800181    0.948268    1.482009
H     -1.893622    2.729631   -0.111403
H     -0.798316    1.790740   -1.290039
16

C      2.826836    0.080926   -0.710802
C      1.739285    0.340317   -0.259183
C      0.413307    0.655980    0.292591
C     -0.094504    1.970432   -0.294462
C     -0.558960   -0.474137    0.007095
C     -0.871571   -0.813840   -1.255618
C     -1.195546   -1.231355    1.143038
H      3.781135   -0.146846   -1.107385
H      0.531928    0.795228    1.388342
H      0.608198    2.799886   -0.063208
H     -1.092999    2.220096    0.124085
H     -0.433712   -0.289408   -2.099644
H     -1.569052   -1.621342   -1.458316
H     -0.929734   -2.307369    1.072231
H     -0.854658   -0.852963    2.129033
H     -2.299953   -1.125605    1.092204
16

C      2.043291    1.699260    0.987299
C      1.397639    0.923961    0.327059
C      0.609511   -0.022239   -0.479251
C      1.059365   -1.460904   -0.208754
C     -0.871727    0.154889   -0.214793
C     -1.770593    0.517379   -1.358958
C     -1.395412   -0.004152    1.012446
H      2.609752    2.379611    1.567020
H      0.817917    0.200382   -1.548644
H      0.941504   -1.723666    0.864483
H      0.457719   -2.167803   -0.819333
H      2.127930   -1.584512   -0.487938
H     -2.263868    1.493983   -1.168799
H     -2.535376   -0.272560   -1.514939
H     -0.767552   -0.259515    1.860298
H     -2.460101    0.125883    1.182806
20

C     -1.024222    0.620946   -1.672250
C     -1.162137   -0.396031   -0.538527
C     -2.259798    0.029507    0.440291
C      0.162269   -0.613205    0.180203
C      0.651642   -1.857807    0.315310
C      0.906439    0.545599    0.814071
C      2.194226    0.859482    0.056302
H     -0.258126    0.289743   -2.405429
H     -0.774197    1.634810   -1.294934
H     -1.497790   -1.346682   -1.009945
H     -3.233376    0.100125   -0.090407
H     -2.035163    1.017176    0.895024
H     -2.359682   -0.724208    1.250454
H      0.133558   -2.715975   -0.101489
H      1.578492   -2.036829    0.852075
H      1.147493    0.302068    1.871748
H      0.277108    1.459228    0.826168
H      2.886704   -0.008189    0.085339
H      2.699383    1.728821    0.527407
H      1.967177    1.111420   -1.001411
18

C     -1.352214    1.066901    0.856462
C     -0.072273    0.767042    0.076860
C     -0.009978    1.584950   -1.222023
C      0.058133   -0.730590   -0.168348
C     -0.711743   -1.345348   -1.076602
C      1.014590   -1.560069    0.606750
C      1.432449   -1.249046    1.833692
H     -2.255536    0.807376    0.263796
H     -1.392752    2.138423    1.146703
H      0.784025    1.115246    0.691661
H      0.891253    1.303310   -1.807535
H      0.057437    2.667782   -0.982323
H     -0.913038    1.427483   -1.848129
H     -1.452867   -0.805264   -1.649724
H     -0.629959   -2.411921   -1.248424
H      1.353772   -2.497688    0.181041
H      1.083455   -0.368303    2.354866
H      2.115248   -1.910285    2.351289
16

C      2.338471   -1.395784    0.305078
C      1.543122   -0.496521    0.195079
C      0.587661    0.579099    0.062772
C      1.007883    1.838304    0.205106
C     -0.866794    0.272406   -0.232685
C     -1.012175   -0.440085   -1.577777
C     -1.488974   -0.568004    0.885956
H      3.036329   -2.185409    0.401570
H      2.047848    2.057864    0.416514
H      0.322426    2.671368    0.113338
H     -1.452589    1.216363   -0.299791
H     -0.624359    0.196409   -2.401641
H     -0.486873   -1.419393   -1.579734
H     -0.985207   -1.555088    0.969801
H     -1.399087   -0.035138    1.856778
H     -2.567684   -0.736391    0.679636
20

C     -1.623562    0.801083   -1.484719
C     -1.275143   -0.281123   -0.460899
C     -2.124864   -0.124654    0.804549
C      0.214862   -0.288346   -0.139491
C      1.028722   -1.521969   -0.460267
C      0.799189    0.794701    0.425625
C      2.259892    0.860462    0.770649
H     -1.044587    0.654964   -2.421541
H     -1.445687    1.822140   -1.085927
H     -1.562835   -1.251355   -0.919909
H     -3.202505   -0.218686    0.550864
H     -1.961371    0.865287    1.280576
H     -1.868541   -0.921546    1.535086
H      0.407181   -2.319360   -0.917283
H      1.835847   -1.267112   -1.178672
H      1.477274   -1.932064    0.468782
H      0.201872    1.673081    0.650268
H      2.515833    0.069669    1.506449
H      2.492632    1.848345    1.220397
H      2.875790    0.736483   -0.144535
20

C     -0.298075   -1.519517   -1.236753
C     -0.801662   -0.197928   -0.649335
C     -1.814236   -0.416362    0.480575
C      0.323799    0.751345   -0.231348
C      0.265339    2.180988   -0.718441
C      1.362984    0.425637    0.578813
C      1.652517   -0.933747    1.146521
H     -1.042350   -1.932692   -1.950944
H     -0.129589   -2.281620   -0.448233
H     -1.369129    0.288354   -1.472847
H     -1.369671   -0.962920    1.334196
H     -2.678948   -1.003606    0.103925
H     -2.193375    0.562649    0.844212
H     -0.638166    2.380862   -1.330862
H      1.160181    2.402584   -1.337960
H      0.245100    2.873966    0.149642
H      2.078043    1.203462    0.838086
H      1.944783   -1.633437    0.337833
H      0.790744   -1.327455    1.717108
H      2.511711   -0.860563    1.845812
20

C      2.397138   -0.348434    0.040969
C      1.153905   -0.330691   -0.846285
C     -0.118076    0.178150   -0.136306
C     -0.002746    1.622891    0.384624
C     -1.373164   -0.041184   -0.991524
C     -1.921549   -1.001859    0.055304
C     -0.672661   -0.803501    0.904223
H      2.729798    0.686283    0.265784
H      2.198324   -0.888844    0.989365
H      3.216061   -0.870391   -0.495733
H      1.352859    0.265015   -1.763517
H      0.756521    1.684136    1.191824
H     -0.971262    1.973561    0.802516
H      0.291873    2.303177   -0.442351
H     -1.176993   -0.553427   -1.959937
H     -2.012540    0.862300   -1.105377
H     -2.017980   -2.041483   -0.327472
H     -2.838765   -0.614178    0.550295
H     -0.903526   -0.336683    1.887370
H     -0.087219   -1.744837    0.996229
20

C      2.254372   -0.190110   -0.444076
C      1.222129   -0.099947    0.681622
C     -0.238442   -0.188957    0.180483
C     -0.569995   -1.506865   -0.546702
C     -1.218803    0.124934    1.315005
C     -1.691758    1.360850    0.561951
C     -0.720554    1.059093   -0.569877
H      2.251011   -1.202845   -0.897885
H      2.051019    0.567203   -1.229573
H      3.267534   -0.003280   -0.029940
H      1.411923   -0.922036    1.405684
H      1.377137    0.859665    1.223494
H     -0.009038   -1.574015   -1.501872
H     -1.653503   -1.567240   -0.787423
H     -0.301939   -2.374001    0.093361
H     -2.041339   -0.620639    1.393383
H     -2.755779    1.292380    0.245521
H     -1.436830    2.295718    1.105680
H     -1.247180    0.835928   -1.524160
H      0.050035    1.854164   -0.674676
20

C      1.908512    0.265244   -1.121644
C      1.000905    0.782494   -0.003767
C     -0.213496   -0.139091    0.277304
C      0.178702   -1.569175    0.697728
C     -1.213554    0.500719    1.249895
C     -2.269114    0.536797    0.152651
C     -1.286209   -0.103848   -0.818672
H      1.325254    0.065879   -2.044686
H      2.680549    1.029339   -1.351950
H      2.428796   -0.662649   -0.805558
H      1.603340    0.887637    0.924644
H      0.646239    1.798899   -0.285481
H      0.671246   -2.099977   -0.143221
H     -0.716976   -2.159523    0.989097
H      0.874465   -1.534724    1.562686
H     -0.930115    1.519973    1.595542
H     -1.527072   -0.163013    2.084893
H     -2.478360    1.587693   -0.146753
H     -1.635646   -1.109383   -1.139128
H     -1.047465    0.566711   -1.673578
18

C      2.223537    0.614549   -0.581736
C      1.133988    0.947788    0.117916
C     -0.012848   -0.023841    0.319335
C      0.372628   -1.224511    1.195086
C     -1.300232    0.637594    0.819280
C     -2.005966    0.225385   -0.466166
C     -0.724999   -0.415677   -0.980068
H      3.030038    1.330040   -0.704455
H      2.316871   -0.365972   -1.038353
H      1.084217    1.940411    0.556200
H     -0.502438   -1.888362    1.367167
H      1.170839   -1.819498    0.703088
H      0.744862   -0.871259    2.180359
H     -1.224955    1.746467    0.872814
H     -2.329528    1.094580   -1.080067
H     -2.807400   -0.519727   -0.273398
H     -0.831967   -1.513754   -1.123856
H     -0.336644    0.105785   -1.883147
18

C      1.888533   -1.314737   -0.543866
C      1.308391   -0.609816    0.436497
C     -0.021324    0.114950    0.276578
C     -0.435292    0.837765    1.569968
C     -1.147321   -0.752030   -0.300174
C     -1.224122    0.158516   -1.521518
C     -0.101022    1.022646   -0.957077
H      2.838155   -1.808803   -0.366070
H      1.429955   -1.406857   -1.523105
H      1.820221   -0.557285    1.393679
H     -1.406657    1.363479    1.442999
H      0.335292    1.587709    1.849314
H     -0.539098    0.104673    2.398248
H     -2.086977   -0.736723    0.296053
H     -0.837200   -1.781176   -0.581463
H     -2.182568    0.723382   -1.522079
H      0.798575    0.993344   -1.608464
H     -0.437540    2.060960   -0.739519
16

C      1.896892   -1.960791    0.858700
C      1.035329   -1.217352    0.460052
C     -0.017502   -0.309634   -0.026320
C     -1.373726   -1.013072   -0.174757
C      0.436116    0.446698   -1.272900
C      0.379311    1.754180   -0.491455
C     -0.079284    1.005591    0.752898
H      2.653058   -2.613178    1.208611
H     -1.288351   -1.858459   -0.890643
H     -1.706242   -1.407963    0.809016
H     -2.147189   -0.309107   -0.551126
H     -0.337058    0.442426   -2.073466
H      1.387774    2.204823   -0.370621
H     -0.390713    2.456455   -0.879950
H      0.659401    1.080429    1.582435
H     -1.107815    1.298953    1.059530
16

C      2.518024   -0.641853    0.770466
C      1.381615   -0.448539    0.416933
C     -0.009399   -0.212118   -0.015817
C     -0.747765   -1.520019   -0.331999
C     -0.115362    0.840109   -1.121560
C     -0.868034    1.765579   -0.172437
C     -0.774484    0.716377    0.929500
H      3.515409   -0.811406    1.080754
H     -0.225207   -2.064175   -1.147624
H     -0.777257   -2.167801    0.570181
H     -1.792097   -1.319428   -0.655516
H     -0.758672    0.532752   -1.974650
H      0.860443    1.268383   -1.444479
H     -0.241630    2.649098    0.082164
H     -0.183256    1.072454    1.803313
H     -1.782328    0.340589    1.210771
20

C      2.760749   -1.035776    0.403055
C      1.315489   -0.652960    0.696265
C      0.621431   -0.076283   -0.538028
C     -0.861423    0.198220   -0.242021
C     -1.780855   -0.984430    0.084277
C     -1.188309    1.522083    0.436757
C     -1.500185    1.325919   -1.044305
H      2.798120   -1.800177   -0.401448
H      3.341866   -0.141512    0.092354
H      3.220051   -1.462569    1.318756
H      1.284414    0.079222    1.532289
H      1.148844    0.851851   -0.852480
H      0.683444   -0.805685   -1.374038
H     -1.425299   -1.490047    1.006030
H     -1.759857   -1.711310   -0.754339
H     -2.832096   -0.662321    0.246191
H     -2.089340    1.525121    1.086653
H     -0.325525    2.196238    0.625277
H     -2.586304    1.226313   -1.256073
H     -0.825215    1.898102   -1.716078
20

C      2.804012   -0.782934    0.334367
C      1.402043   -0.288809    0.667888
C      0.464581   -0.503469   -0.520304
C     -0.900836    0.152942   -0.305507
C     -1.835979   -0.387175    0.781643
C     -0.982447    1.641860   -0.606602
C     -1.575741    0.631527   -1.582863
H      3.205722   -0.234633   -0.544498
H      3.476016   -0.608214    1.200918
H      2.786834   -1.871276    0.111717
H      1.022272   -0.840816    1.554426
H      1.453452    0.793491    0.915595
H      0.335915   -1.587848   -0.727621
H     -1.375674   -0.234552    1.779601
H     -1.999987   -1.473449    0.623021
H     -2.822342    0.124658    0.772295
H     -1.744422    2.210620   -0.031999
H     -0.042613    2.112066   -0.967727
H     -2.686717    0.622353   -1.587803
H     -0.984087    0.523658   -2.517453
20

C      2.741162    0.279544    0.238977
C      1.274582    0.617802   -0.012498
C      0.369890   -0.584494    0.282824
C     -1.105495   -0.265370   -0.027458
C     -1.827028    0.808628    0.791480
C     -1.985061   -1.444142   -0.429330
C     -1.548981   -0.417796   -1.472284
H      3.065211   -0.551008   -0.423751
H      3.369817    1.169487    0.025136
H      2.892418   -0.016085    1.299067
H      0.991724    1.472714    0.638514
H      1.153101    0.926470   -1.073645
H      0.455699   -0.858726    1.356555
H      0.720574   -1.454250   -0.316288
H     -2.921876    0.807310    0.598280
H     -1.661722    0.625471    1.873745
H     -1.428067    1.810497    0.529957
H     -1.399144   -2.380285   -0.550823
H     -2.373666    0.251251   -1.796544
H     -0.783140   -0.797017   -2.182820
20

C      1.778208   -0.899326    0.991906
C      0.781295    0.243811    1.129287
C      0.078647    0.526664   -0.214920
C      0.875730    1.277910   -1.289455
C     -1.393418    0.933864   -0.111929
C     -1.017773   -0.414174   -0.730284
C     -1.381117   -1.645172    0.107571
H      2.211481   -1.145710    1.984026
H      2.599924   -0.622534    0.298634
H      1.321992    1.157620    1.456649
H      0.059905   -0.006789    1.934333
H      1.746385    0.666877   -1.604566
H      0.262058    1.494621   -2.190386
H      1.243022    2.240459   -0.876065
H     -1.845987    0.886525    0.901641
H     -1.744529    1.679132   -0.857294
H     -1.135955   -0.470883   -1.833904
H     -1.553012   -1.414513    1.178856
H     -2.314651   -2.088562   -0.296370
H     -0.572202   -2.399819    0.022272
20

C      2.279581   -0.139611   -0.857083
C      0.777235   -0.004687   -1.080776
C      0.021891    0.358085    0.216826
C      0.433858    1.637583    0.957504
C     -0.377037   -0.817033    1.107225
C     -1.457325   -0.029577    0.360469
C     -2.137271   -0.770822   -0.796733
H      2.486585   -0.890926   -0.065624
H      2.716471    0.838439   -0.568137
H      2.763375   -0.469394   -1.800070
H      0.407235   -0.940210   -1.547749
H      1.451907    1.516324    1.382048
H     -0.257114    1.879254    1.793522
H      0.437401    2.490885    0.247646
H     -0.132434   -1.822077    0.701481
H     -0.347316   -0.615339    2.199329
H     -2.081904    0.626851    1.004063
H     -2.121211   -0.134885   -1.706352
H     -3.196218   -0.961697   -0.525500
H     -1.667708   -1.751163   -1.022090
20

C      0.351723    2.011527   -0.282284
C     -0.010781    0.539516   -0.050254
C      0.904096   -0.538009   -0.674210
C      2.353216   -0.386440   -0.217049
C     -0.587072    0.216679    1.326997
C     -1.511641    0.253043    0.107017
C     -2.050301   -1.105418   -0.357312
H      1.268316    2.274296    0.285529
H     -0.462694    2.706184    0.015266
H      0.577363   -1.564248   -0.408267
H      0.861330   -0.446947   -1.780503
H      2.784513    0.565032   -0.592820
H      2.411661   -0.407103    0.892069
H      2.959212   -1.225071   -0.620303
H     -0.705367    1.087719    2.006442
H     -0.334030   -0.790363    1.722316
H     -2.192514    1.130481    0.067044
H     -1.596487   -1.962229    0.183179
H     -3.144516   -1.136888   -0.175540
H     -1.876024   -1.221760   -1.447317
20

C      2.187538   -0.778882   -0.493943
C      1.001426    0.167799   -0.664624
C     -0.104187   -0.095929    0.380977
C      0.281545   -0.115903    1.868219
C     -1.162804   -1.108721   -0.048743
C     -1.533564    0.368595    0.085252
C     -1.817667    1.056806   -1.252059
H      1.845110   -1.835212   -0.523719
H      2.707486   -0.584651    0.467594
H      2.913144   -0.617161   -1.318853
H      0.622971    0.041075   -1.700427
H      1.355089    1.215400   -0.557299
H      0.854389    0.802450    2.114123
H      0.912578   -1.003423    2.081923
H     -0.608337   -0.161019    2.532078
H     -1.559413   -1.678134    0.819294
H     -2.182684    0.607210    0.955748
H     -1.608519    0.399009   -2.122708
H     -2.890903    1.336290   -1.291125
H     -1.213199    1.984399   -1.331709
20

C      2.457906   -0.643379   -0.204548
C      1.490946    0.534908   -0.105784
C      0.028523    0.073284    0.028452
C     -0.406237   -0.593562    1.346896
C     -0.637062   -0.433146   -1.244445
C     -0.967803    0.970748   -0.723072
C     -2.370160    1.084212   -0.107513
H      2.457345   -1.232360    0.735745
H      3.487187   -0.262881   -0.374092
H      2.181677   -1.303869   -1.053432
H      1.623126    1.173679   -1.007542
H      1.758093    1.151341    0.779160
H     -0.378881    0.155354    2.165575
H      0.287601   -1.419918    1.600810
H     -1.424890   -1.029330    1.292497
H     -1.408903   -1.219116   -1.100244
H      0.006663   -0.423312   -2.148994
H     -2.926675    0.123691   -0.082263
H     -2.297631    1.496174    0.920717
H     -2.960824    1.797484   -0.717923
20

C      2.296310    0.489389   -0.876178
C      1.564302   -0.283588    0.213521
C      0.755262    0.608359    1.154188
C      0.032184   -0.304094    0.165781
C     -0.619335   -1.554290    0.772680
C     -0.683728    0.403929   -1.007247
C     -2.096575    0.841341   -0.628335
H      2.505159   -0.183813   -1.733080
H      3.252119    0.886842   -0.476135
H      2.081969   -1.126148    0.720534
H      0.753865    0.263159    2.210220
H      0.750595    1.690524    0.898783
H     -1.558063   -1.274381    1.293891
H      0.044411   -2.055870    1.509347
H     -0.856332   -2.277716   -0.035032
H     -0.129410    1.307356   -1.340546
H     -0.738350   -0.294662   -1.869248
H     -2.740364   -0.042109   -0.434871
H     -2.071212    1.486353    0.275643
H     -2.542808    1.419420   -1.464825
20

C      2.664042   -0.339054   -0.359712
C      1.513725   -0.386588    0.638886
C      0.190227    0.055826   -0.013317
C     -0.002460    1.553300   -0.312754
C     -0.428169   -0.928435   -1.007111
C     -1.042859   -0.769474    0.384994
C     -2.407953   -0.072060    0.426185
H      3.575630   -0.783932    0.091991
H      2.888040    0.706466   -0.656406
H      1.742122    0.280352    1.497583
H      1.441781   -1.424906    1.029628
H      0.907827    1.967157   -0.791168
H     -0.849869    1.747679   -1.001363
H     -0.178699    2.098584    0.637768
H      0.130240   -1.879307   -1.142295
H     -0.993103   -0.470486   -1.846872
H     -0.870916   -1.629137    1.067850
H     -2.419909    0.666002    1.254941
H     -2.667858    0.439996   -0.523389
H     -3.191839   -0.831982    0.624560
20

C      2.628442   -0.043354    0.491787
C      1.276876   -0.597065    0.932155
C      0.100837    0.050782    0.178368
C     -0.256324    1.506820    0.521047
C     -0.097911   -0.389103   -1.272164
C     -1.042459   -0.908448   -0.186206
C     -2.473003   -0.358388   -0.241062
H      3.435723   -0.572934    1.039174
H      2.703311    1.037597    0.727100
H      2.776472   -0.197659   -0.597802
H      1.284272   -1.703997    0.826498
H      0.657833    2.133481    0.527478
H     -0.716792    1.544749    1.530214
H     -0.955287    1.960446   -0.210787
H      0.619335   -1.153657   -1.639619
H     -0.511730    0.384765   -1.953272
H     -0.901052   -1.979405    0.074634
H     -2.581703    0.514603   -0.917530
H     -2.797783   -0.072421    0.780943
H     -3.149058   -1.156811   -0.610956
20

C      0.383616    0.817655    1.494132
C     -0.031777    0.481797    0.061369
C      1.005175    0.640310   -1.064844
C      2.127331   -0.385331   -0.933909
C     -1.450824    0.926412   -0.290183
C     -1.128154   -0.562350   -0.161034
C     -1.713732   -1.252682    1.075205
H      1.105416    0.065371    1.873796
H      0.833455    1.831447    1.536959
H      0.533655    0.517454   -2.064871
H      1.437583    1.662842   -1.020799
H      2.693159   -0.225464    0.007840
H      1.711173   -1.415222   -0.943323
H      2.829614   -0.277925   -1.787233
H     -1.611834    1.256272   -1.338641
H     -2.040622    1.361663    0.545710
H     -1.091397   -1.119137   -1.122109
H     -1.019812   -2.052291    1.407808
H     -1.887874   -0.553802    1.920878
H     -2.684151   -1.717020    0.803250
20

C      2.270580   -0.267032   -0.317490
C      1.384690    0.550419    0.618128
C     -0.091109    0.123370    0.502139
C     -0.475332   -1.292741    0.956993
C     -1.127008    1.193440    0.848318
C     -0.896877    0.797016   -0.609023
C     -2.055687    0.015063   -1.230392
H      2.240049   -1.342220   -0.041450
H      3.320135    0.086726   -0.238783
H      1.932527   -0.147835   -1.368940
H      1.515254    1.627119    0.371215
H      1.725472    0.403252    1.665347
H      0.113660   -1.568988    1.856511
H     -0.247833   -2.018368    0.148513
H     -1.550364   -1.373090    1.223114
H     -0.656900    2.179731    1.049385
H     -0.363087    1.552359   -1.225943
H     -1.654781   -0.843074   -1.808906
H     -2.777238   -0.356261   -0.472114
H     -2.606152    0.681115   -1.926621
20

C      2.447507   -1.082404    0.035377
C      1.528313    0.125203   -0.100552
C      0.645241    0.078377   -1.346524
C      0.019054   -0.109503    0.034031
C     -0.464844   -1.530237    0.373922
C     -0.777318    1.087626    0.589395
C     -2.167296    1.187990   -0.035011
H      3.356641   -0.932855   -0.583239
H      2.739945   -1.209209    1.098155
H      1.923696    1.136233    0.136931
H      0.479456    1.072229   -1.814498
H      0.735115   -0.843416   -1.961597
H     -0.392721   -1.691516    1.469663
H      0.125805   -2.316389   -0.141713
H     -1.521576   -1.655714    0.062913
H     -0.879880    0.973766    1.689746
H     -0.243090    2.045163    0.402138
H     -2.790417    0.315848    0.252081
H     -2.670707    2.108061    0.329743
H     -2.092925    1.240746   -1.141867
20

C      1.581959    1.002207    1.014458
C      0.918974   -0.243239    0.410224
C      1.647076   -0.653080   -0.876334
C     -0.615334   -0.116440    0.167175
C     -1.412428   -1.416571   -0.014719
C     -1.097685    1.057659   -0.680849
C     -1.389813    1.032815    0.817184
H      2.608980    0.766997    1.366801
H      1.629987    1.837121    0.284380
H      1.062274   -1.061085    1.149771
H      1.260142   -1.623295   -1.251117
H      1.512666    0.116900   -1.665622
H      2.733751   -0.776126   -0.680004
H     -1.246069   -2.079290    0.859963
H     -2.504137   -1.230308   -0.107721
H     -1.076114   -1.941419   -0.932149
H     -0.335558    1.808973   -0.972823
H     -1.994286    0.870059   -1.309807
H     -0.823182    1.803331    1.378075
H     -2.461200    0.844791    1.043112
20

C     -1.548954   -1.175540    0.615817
C     -0.736983   -0.371464   -0.413833
C     -1.540680    0.857354   -0.863892
C      0.692703    0.046789    0.046968
C      1.699145    0.447715   -1.043350
C      0.743124    0.889935    1.319129
C      1.302806   -0.528972    1.324750
H     -1.676423   -0.601479    1.558251
H     -2.556472   -1.410467    0.210580
H     -1.050224   -2.144380    0.828578
H     -0.616771   -1.028946   -1.302908
H     -2.531838    0.546676   -1.258266
H     -1.010992    1.395248   -1.677212
H     -1.699229    1.555046   -0.014006
H      2.712081    0.641670   -0.629618
H      1.356333    1.369317   -1.556635
H      1.781297   -0.369447   -1.789881
H      1.573282    1.628681    1.292317
H      2.412014   -0.549937    1.389112
H      0.695778   -1.197799    1.964099
20

C     -1.307644    1.164401   -0.592222
C     -0.443345    0.000963   -0.068247
C     -1.315491   -0.881910    0.846327
C      0.018330   -0.835811   -1.286564
C      0.709420    0.625505    0.785621
C      1.749649   -0.321794    1.379362
C      2.140652    0.639666    0.265436
H     -0.702024    1.837490   -1.237252
H     -1.715115    1.765369    0.249838
H     -2.164636    0.785132   -1.190428
H     -2.206502   -1.258679    0.298651
H     -1.668473   -0.304528    1.728325
H     -0.741584   -1.759741    1.211837
H     -0.861413   -1.254303   -1.822069
H      0.574516   -0.206787   -2.013654
H      0.654084   -1.692064   -0.983719
H      0.457042    1.452455    1.484079
H      1.669225   -1.354018    0.984629
H      2.758862    1.482753    0.637458
H      2.394448    0.115901   -0.677407
20

C      2.574851    0.679369   -0.375515
C      1.324560    0.264082    0.400366
C      0.932142   -1.196516    0.160134
C     -0.596564   -1.236688    0.112234
C     -1.079078    0.195312    0.356733
C     -2.332855    0.544005   -0.451175
C      0.105551    1.086562    0.006543
H      2.436270    0.541121   -1.469447
H      3.452946    0.090758   -0.034982
H      1.516196    0.413040    1.486984
H      1.317629   -1.839817    0.981220
H      1.342002   -1.573291   -0.803650
H     -0.999556   -1.920476    0.891068
H     -0.923730   -1.606563   -0.885299
H     -1.306518    0.316893    1.440388
H     -2.638367    1.590903   -0.240562
H     -2.145008    0.437341   -1.541272
H     -3.166390   -0.131122   -0.163004
H      0.118132    1.297950   -1.087112
H      0.067785    2.047138    0.565441
20

C      2.534215   -0.164461   -0.551292
C      1.313355    0.305895    0.240352
C      0.711432   -0.778107    1.135323
C     -0.802556   -0.711512    0.943160
C     -1.075108    0.575494    0.167280
C     -2.328379    0.483055   -0.708178
C      0.187973    0.820646   -0.645757
H      2.928056    0.673185   -1.164321
H      2.267855   -1.011199   -1.219780
H      3.330004   -0.491906    0.150098
H      0.976759   -0.558005    2.191245
H      1.084760   -1.793438    0.874650
H     -1.332358   -0.705487    1.920674
H     -1.134868   -1.599984    0.360628
H     -1.203002    1.411700    0.892057
H     -3.219319    0.296304   -0.071814
H     -2.478719    1.439064   -1.253246
H     -2.236808   -0.341051   -1.448058
H      0.152400    0.248380   -1.600588
H      0.324307    1.901425   -0.863340
20

C      2.417780    0.498518   -0.184346
C      1.155755   -0.347442    0.008907
C      0.538306   -0.176027    1.395786
C     -0.967178   -0.331002    1.216799
C     -1.235112   -0.435343   -0.281674
C     -2.445566    0.407466   -0.682394
C      0.047997    0.024225   -0.967464
H      2.823109    0.342837   -1.206662
H      3.191667    0.193908    0.551808
H      2.197022    1.578909   -0.046581
H      1.415953   -1.420483   -0.138190
H      0.733136    0.840765    1.800510
H      0.939817   -0.932506    2.104784
H     -1.348592   -1.228704    1.750836
H     -1.425217   -1.500126   -0.546792
H     -2.298212    1.471003   -0.395033
H     -2.601010    0.347997   -1.780614
H     -3.356941    0.023379   -0.176645
H      0.186272   -0.483921   -1.946760
H      0.031016    1.126548   -1.127181
20

C      2.440937   -0.754185   -0.166691
C      1.193750   -0.139273    0.474983
C     -0.026984   -1.039282    0.350619
C     -1.206977   -0.084140    0.455447
C     -2.470482   -0.641403   -0.206630
C     -0.735398    1.228248   -0.175839
C      0.793236    1.193158   -0.163369
H      2.279364   -0.938987   -1.250562
H      3.304739   -0.066656   -0.045034
H      2.684900   -1.717673    0.329229
H      1.391974    0.022727    1.558137
H     -0.030437   -1.541875   -0.643500
H     -1.415133    0.087215    1.535293
H     -2.766454   -1.592471    0.284932
H     -2.299963   -0.833877   -1.287793
H     -3.303671    0.085108   -0.098802
H     -1.093652    1.323111   -1.225378
H     -1.115807    2.096190    0.405992
H      1.203527    2.042927    0.424947
H      1.172533    1.271138   -1.206888
20

C      2.568962   -0.417453   -0.750763
C      1.208097   -0.682199   -0.104921
C      0.972148    0.191230    1.126729
C     -0.524768    0.431519    1.158889
C     -0.939946    0.497922   -0.307303
C     -2.401197    0.088411   -0.516274
C      0.042945   -0.403640   -1.064829
H      2.660933    0.641249   -1.076031
H      3.388234   -0.662598   -0.041991
H      1.169911   -1.750916    0.204480
H      1.319152   -0.312915    2.054877
H      1.492801    1.170328    1.027719
H     -0.771717    1.373799    1.694772
H     -1.019021   -0.423607    1.672677
H     -0.810252    1.545737   -0.662228
H     -3.069425    0.768589    0.053455
H     -2.662047    0.159334   -1.593580
H     -2.572775   -0.954563   -0.173086
H     -0.429616   -1.367676   -1.358381
H      0.377580    0.107449   -1.995117
20

C      2.469849   -0.122434   -0.325394
C      1.062370   -0.392025    0.216063
C      0.632232    0.646891    1.247481
C     -0.878127    0.704184    1.145428
C     -1.179763    0.457243   -0.329326
C     -2.535577   -0.224838   -0.537093
C     -0.009240   -0.368636   -0.881047
H      2.518907    0.870631   -0.821850
H      2.746814   -0.906162   -1.062109
H      3.205684   -0.145253    0.506360
H      1.055113   -1.394058    0.702388
H      1.039281    1.651774    0.998594
H      0.957565    0.363420    2.271990
H     -1.310029   -0.104491    1.777179
H     -1.198425    1.445463   -0.840578
H     -3.346105    0.407518   -0.116345
H     -2.725182   -0.363621   -1.622686
H     -2.558333   -1.217999   -0.038874
H     -0.313531   -1.411008   -1.124835
H      0.366498    0.103402   -1.816254
20

C      2.440826   -0.745223   -0.016640
C      1.134543   -0.109555    0.468956
C     -0.071023   -1.036947    0.302135
C     -1.172682   -0.221299   -0.367983
C     -2.517199   -0.444867    0.323405
C     -0.719396    1.234656   -0.301126
C      0.796025    1.171475   -0.291003
H      2.370097   -1.019727   -1.091242
H      3.281376   -0.031770    0.118366
H      2.657974   -1.660484    0.574050
H      1.231198    0.128415    1.551097
H      0.156923   -1.949277   -0.292798
H     -1.254417   -0.524843   -1.436276
H     -2.816586   -1.510588    0.231009
H     -2.454275   -0.182976    1.401761
H     -3.298171    0.182847   -0.156031
H     -1.093630    1.816577   -1.171348
H     -1.068003    1.718288    0.639208
H      1.233933    2.065120    0.204588
H      1.162487    1.120178   -1.341035
18

C      2.738511    0.782928    0.392587
C      1.527923    0.285714    0.131283
C      1.299587   -1.134168   -0.242414
C     -0.219203   -1.275739   -0.250821
C     -0.783534    0.146763   -0.391902
C     -2.144915    0.306887    0.290953
C      0.276572    1.087758    0.186955
H      2.868199    1.825841    0.664466
H      1.756608   -1.822363    0.501733
H      1.718888   -1.328614   -1.253373
H     -0.556512   -1.925952   -1.087129
H     -0.544336   -1.731533    0.711357
H     -0.901630    0.370332   -1.476673
H     -2.515596    1.345003    0.154526
H     -2.069392    0.092516    1.378717
H     -2.879166   -0.392189   -0.162736
H      0.063340    1.359383    1.244223
H      0.364657    2.007433   -0.431742
18

C      2.582010    0.777300    0.536989
C      1.408835    0.261834    0.159564
C      1.281558   -1.046324   -0.534792
C     -0.218344   -1.305189   -0.560965
C     -0.898793    0.057234   -0.358331
C     -2.245688   -0.063421    0.360324
C      0.100824    0.923882    0.411407
H      2.625006    1.732948    1.050287
H      3.507827    0.247331    0.335485
H      1.677222   -0.949665   -1.569115
H     -0.529964   -1.773458   -1.519872
H     -0.461847   -1.996921    0.274922
H     -1.069277    0.515731   -1.358998
H     -2.702573    0.942268    0.476721
H     -2.117975   -0.518556    1.366028
H     -2.935939   -0.697431   -0.235713
H     -0.102766    0.927382    1.504888
H      0.099883    1.965056    0.021182
18

C      2.407972    0.988084    0.349450
C      1.257396    0.324617    0.196995
C      1.075778   -1.098450    0.587337
C     -0.410095   -1.350720    0.387518
C     -0.937666   -0.242710   -0.526020
C     -2.373896    0.129390   -0.158941
C      0.028629    0.936396   -0.376566
H      2.488692    2.028473    0.050063
H      3.276808    0.495260    0.774674
H      1.345601   -1.258334    1.652584
H      1.682082   -1.754615   -0.073890
H     -0.608609   -2.362930   -0.026939
H     -0.910504   -0.602752   -1.579402
H     -2.730954    0.951632   -0.814854
H     -2.435761    0.458992    0.900718
H     -3.039957   -0.748248   -0.300669
H     -0.355733    1.709751    0.324536
H      0.240217    1.396163   -1.366596
18

C      2.601851   -0.389942   -0.051963
C      1.292519   -0.197159    0.136864
C      0.736231    0.609763    1.257683
C     -0.756836    0.690530    0.957939
C     -1.056036   -0.448663   -0.021495
C     -2.221672   -0.146990   -0.963176
C      0.244832   -0.766031   -0.751987
H      2.956908   -0.986624   -0.886512
H      3.327373    0.047669    0.626753
H      0.917044    0.087420    2.222123
H      1.189203    1.624861    1.281299
H     -0.984766    1.676188    0.493790
H     -1.358879    0.573169    1.883888
H     -2.406019   -1.021826   -1.621333
H     -3.139839    0.047867   -0.370344
H     -1.999747    0.741338   -1.592665
H      0.296814   -0.275574   -1.748796
H      0.361018   -1.865996   -0.852068
18

C      2.358790    0.781959    0.418964
C      1.126890   -0.122884    0.439881
C      0.742113   -0.628923   -0.958607
C     -0.772044   -0.811389   -0.943876
C     -1.229121    0.034507    0.192120
C     -2.516760    0.270708    0.462919
C     -0.106714    0.592319    0.993959
H      3.244232    0.220058    0.053192
H      2.193029    1.673808   -0.222936
H      1.346678   -1.002594    1.085891
H      1.007363    0.124519   -1.733975
H      1.258737   -1.584341   -1.195713
H     -1.220314   -0.470031   -1.902364
H     -1.039061   -1.873239   -0.752164
H     -2.797695    0.897262    1.303777
H     -3.298458   -0.160910   -0.154482
H     -0.058983    1.692698    0.838696
H     -0.238682    0.366472    2.074719
18

C      2.554482    0.953484    0.080602
C      1.323592    0.458727   -0.075983
C      0.125037    1.036489    0.585695
C     -1.041730    0.306762   -0.078611
C     -2.197845    0.042500    0.890075
C     -0.463931   -0.986589   -0.673550
C      1.011254   -0.709852   -0.942306
H      2.725970    1.813768    0.720225
H      3.399495    0.501809   -0.429808
H      0.182106    0.822045    1.675621
H     -1.411696    0.946561   -0.910327
H     -1.863400   -0.587319    1.742362
H     -3.022294   -0.479623    0.359662
H     -2.586847    1.004784    1.285598
H     -0.995510   -1.270341   -1.607802
H     -0.547448   -1.823630    0.055556
H      1.635105   -1.588423   -0.668359
H      1.173663   -0.441152   -2.008651
16

C      2.393763    0.880738    0.087328
C      1.191693    0.298635    0.119715
C      0.975338   -1.096278    0.613470
C     -0.528840   -1.332867    0.499244
C     -1.087371   -0.063069   -0.062732
C     -2.388349    0.117557   -0.311345
C     -0.057137    0.979996   -0.315960
H      2.504394    1.898436   -0.274204
H      3.275918    0.343722    0.421976
H      1.532487   -1.814420   -0.026727
H     -0.745578   -2.185275   -0.180771
H     -0.954887   -1.528427    1.505903
H     -2.746945    1.057744   -0.718862
H     -3.103481   -0.673731   -0.108956
H     -0.010651    1.234606   -1.396653
H     -0.250355    1.882633    0.302861
18

C      1.954881    0.004245    1.138186
C      1.314431   -0.350106   -0.201402
C      0.917519    0.891671   -0.920353
C     -0.392713    0.998885   -1.060187
C     -1.124489   -0.151721   -0.460352
C     -1.985557    0.315025    0.716239
C     -0.007951   -1.116002   -0.018966
H      2.222016   -0.920496    1.692399
H      2.876312    0.604436    0.979682
H      2.028769   -0.935613   -0.820697
H      1.617875    1.641186   -1.275282
H     -0.874104    1.844563   -1.541043
H     -1.769974   -0.627485   -1.230889
H     -2.512372   -0.553277    1.165829
H     -1.358478    0.799246    1.496270
H     -2.748283    1.042189    0.364429
H     -0.148928   -1.481273    1.023320
H     -0.008953   -2.005474   -0.687173
18

C      2.140384   -0.221898    0.667898
C      1.238020   -0.553214   -0.521396
C      0.827793    0.690376   -1.231479
C     -0.476316    0.897994   -1.173593
C     -1.188380   -0.166306   -0.412024
C     -1.828489    0.414484    0.851495
C     -0.089172   -1.194895   -0.088622
H      3.070007    0.268433    0.309355
H      1.623487    0.456162    1.381354
H      2.421532   -1.157536    1.195259
H      1.518016    1.364048   -1.728913
H     -0.963424    1.759987   -1.618382
H     -1.973880   -0.623159   -1.053094
H     -2.339357   -0.391374    1.420004
H     -1.060053    0.883729    1.503580
H     -2.584291    1.181020    0.576817
H     -0.089156   -1.498968    0.982376
H     -0.246723   -2.108883   -0.700621
18

C      2.369507   -0.285674    0.381443
C      1.231133   -0.095530   -0.622223
C      0.795209    1.329502   -0.670615
C     -0.517333    1.438299   -0.546336
C     -1.195789    0.121835   -0.386575
C     -2.127238    0.124699    0.827822
C     -0.037466   -0.878209   -0.241243
H      3.257017    0.302585    0.064448
H      2.060942    0.048014    1.396026
H      2.656667   -1.357662    0.426266
H      1.572320   -0.399644   -1.636183
H     -1.036271    2.390354   -0.586763
H     -1.780401   -0.098269   -1.306818
H     -2.586104   -0.879019    0.952684
H     -1.568886    0.384330    1.753450
H     -2.940932    0.866399    0.679798
H      0.029426   -1.268656    0.799607
H     -0.181802   -1.743354   -0.924776
18

C      2.068073   -0.824822   -0.303472
C      1.263728    0.412803    0.086224
C      0.211857    0.061638    1.142857
C     -1.148638    0.425838    0.540666
C     -2.052510   -0.802557    0.472765
C     -0.826299    0.928767   -0.823723
C      0.472332    0.921751   -1.068359
H      1.398337   -1.627448   -0.682524
H      2.622641   -1.207318    0.579689
H      2.803929   -0.565870   -1.094455
H      1.943046    1.211659    0.456216
H      0.392499    0.622876    2.085677
H     -1.638403    1.231011    1.130890
H     -1.575007   -1.611381   -0.122407
H     -2.251698   -1.180982    1.497920
H     -3.022979   -0.534384    0.003224
H     -1.566441    1.275887   -1.537753
H      0.905535    1.262532   -2.003423
18

C      2.600225    0.111617    0.277996
C      1.308611    0.101312   -0.537079
C      0.615726    1.412848   -0.417497
C     -0.574373    1.306315    0.147564
C     -0.900332   -0.096847    0.527351
C     -2.237967   -0.531842   -0.075709
C      0.285884   -0.921148   -0.007666
H      3.136337   -0.854334    0.164090
H      2.395220    0.300768    1.354235
H      1.545074   -0.096235   -1.605181
H      1.037736    2.357796   -0.744937
H     -1.219454    2.157297    0.342446
H     -0.948859   -0.169761    1.636078
H     -2.443499   -1.590867    0.188546
H     -3.059411    0.096447    0.330084
H     -2.222801   -0.432284   -1.182844
H      0.706588   -1.558456    0.801695
H     -0.024706   -1.592626   -0.839161
18

C      2.415707   -0.191545    0.122500
C      1.110899    0.313810   -0.497101
C      0.065172   -0.800095   -0.645148
C     -1.084146   -0.446804    0.302111
C     -2.413497   -0.418943   -0.447489
C     -0.728998    0.903778    0.820447
C      0.454448    1.310893    0.394211
H      2.227445   -0.651907    1.116826
H      3.129300    0.651090    0.244847
H      2.880831   -0.949431   -0.543034
H      1.312020    0.770285   -1.489511
H      0.466804   -1.817033   -0.439563
H     -1.132128   -1.168560    1.146653
H     -2.638197   -1.428021   -0.853827
H     -3.233079   -0.128915    0.244136
H     -2.377106    0.307502   -1.288421
H     -1.351006    1.482138    1.496313
H      0.895531    2.261757    0.676060
16

C      2.676139   -0.148233    0.912659
C      1.500082    0.079226    0.339656
C      1.041726    1.380265   -0.090776
C     -0.160963    1.269011   -0.620900
C     -0.662136   -0.146004   -0.616573
C     -1.981396   -0.252352    0.151534
C      0.471695   -0.957151    0.048428
H      2.963399   -1.147581    1.213405
H      1.590641    2.308955   -0.000437
H     -0.711885    2.108474   -1.025235
H     -0.813065   -0.484415   -1.665160
H     -2.762083    0.359838   -0.348364
H     -1.858431    0.105146    1.196949
H     -2.322869   -1.309088    0.169495
H      0.150119   -1.451723    0.991519
H      0.879027   -1.714369   -0.656201
16

C      2.527442   -0.026473   -0.932039
C      1.379792   -0.196054   -0.282212
C      0.981924   -1.433296    0.358113
C     -0.205695   -1.252937    0.906986
C     -0.747389    0.131735    0.708759
C     -2.095942    0.089655   -0.013571
C      0.337119    0.852622   -0.114480
H      2.763444    0.926295   -1.388595
H      3.240022   -0.837662   -1.013159
H     -0.721484   -2.029784    1.455883
H     -0.869673    0.623030    1.698997
H     -2.840687   -0.455715    0.604551
H     -2.000907   -0.421202   -0.996349
H     -2.467370    1.123284   -0.178772
H     -0.030179    1.189086   -1.109186
H      0.749584    1.717415    0.449360
16

C      2.466115   -0.575108    0.214139
C      1.250460   -0.082711   -0.007878
C      0.838527    1.270223    0.300179
C     -0.423184    1.435409   -0.045720
C     -1.019513    0.195851   -0.644398
C     -2.247483   -0.257153    0.145023
C      0.119831   -0.841061   -0.610910
H      2.697922   -1.600056   -0.045734
H      3.238352    0.041234    0.656851
H      1.459685    2.038007    0.743579
H     -0.956668    2.368937    0.077780
H     -3.033635    0.525614    0.097613
H     -2.654720   -1.189013   -0.300414
H     -1.986165   -0.445870    1.208952
H      0.373631   -1.153540   -1.645851
H     -0.123155   -1.730763    0.011078
16

C     -2.060567    0.927872   -0.516457
C     -1.032618    0.353216    0.454037
C     -0.899849   -1.127311    0.256195
C      0.330936   -1.488196   -0.050916
C      1.177159   -0.315896   -0.109718
C      2.477151   -0.331534   -0.391530
C      0.383287    0.907924    0.189553
H     -2.131416    2.029230   -0.391244
H     -3.060338    0.480730   -0.329938
H     -1.343402    0.561511    1.501314
H     -1.714404   -1.831493    0.367864
H      0.646134   -2.508711   -0.227340
H      3.043406    0.590695   -0.416659
H      2.985249   -1.264794   -0.599108
H      0.416108    1.604220   -0.677562
H      0.783166    1.412539    1.095798
16

C      2.554006    0.628788    0.181582
C      1.318632    0.177266   -0.012056
C      0.331868   -0.086648    1.069984
C     -0.911738   -0.561999    0.301200
C     -2.092568    0.370945    0.558763
C     -0.504616   -0.526499   -1.142676
C      0.737733   -0.115386   -1.304574
H      3.215622    0.802021   -0.657774
H      2.913682    0.828917    1.182787
H      0.708805   -0.893142    1.735883
H     -1.178778   -1.602379    0.589579
H     -1.842164    1.413909    0.266108
H     -2.975948    0.035056   -0.025175
H     -2.357954    0.354268    1.637243
H     -1.149545   -0.809631   -1.964583
H      1.232963   -0.015488   -2.262004
18

C      2.841513    0.235027    0.164813
C      1.389752    0.018873   -0.126830
C      0.932130   -1.025951   -0.797506
C     -0.549909   -1.015843   -0.907921
C     -0.964233    0.346949   -0.323402
C     -2.127230    0.227022    0.666800
C      0.302933    0.927395    0.329134
H      2.991776    1.189345    0.712007
H      3.232771   -0.603366    0.778586
H      1.563877   -1.817519   -1.188903
H     -0.856087   -1.103311   -1.972445
H     -0.962775   -1.869600   -0.327523
H     -1.276608    1.015097   -1.157735
H     -2.391620    1.230778    1.062137
H     -3.017527   -0.195383    0.154296
H     -1.853719   -0.434269    1.517093
H      0.253670    0.909971    1.440003
H      0.491283    1.964784   -0.022604
18

C      2.744253    0.005198   -0.177919
C      1.284480    0.217679    0.075693
C      0.783420    1.379339    0.468584
C     -0.697270    1.308498    0.601418
C     -1.025408   -0.186710    0.457903
C     -2.254794   -0.436084   -0.421293
C      0.245798   -0.831223   -0.112871
H      2.929389   -1.036809   -0.513756
H      3.317823    0.188307    0.754940
H      3.094247    0.703141   -0.967372
H     -1.157738    1.915503   -0.208301
H     -1.016285    1.699801    1.590936
H     -1.218658   -0.609286    1.470040
H     -2.449767   -1.526959   -0.496436
H     -3.145598    0.051187    0.028915
H     -2.098894   -0.027328   -1.442893
H      0.512045   -1.752375    0.449235
H      0.152957   -1.061880   -1.196813
18

C      2.561022   -0.259268   -0.270316
C      1.135408    0.075171    0.046683
C      0.729666    1.286549    0.391451
C     -0.735275    1.342193    0.630714
C     -1.212462   -0.103484    0.448287
C     -2.352477   -0.162346   -0.569235
C      0.019500   -0.907009   -0.007998
H      2.654242   -1.332269   -0.540068
H      3.199945   -0.055300    0.614478
H      2.910157    0.356818   -1.125472
H      1.389183    2.144837    0.473857
H     -0.936177    1.698364    1.663922
H     -1.575547   -0.502126    1.422403
H     -2.680868   -1.214230   -0.708995
H     -3.217981    0.429907   -0.202913
H     -2.025540    0.247709   -1.549309
H      0.220010   -1.750292    0.687686
H     -0.082808   -1.295225   -1.045164
18

C     -2.391167   -0.685853   -0.142142
C     -1.186328   -0.058703    0.560588
C     -0.831733    1.333822    0.023395
C      0.643989    1.290224   -0.145936
C      1.138280    0.082198    0.080948
C      2.591735   -0.254417   -0.055327
C      0.086966   -0.905523    0.446541
H     -2.192058   -0.809304   -1.228405
H     -3.281908   -0.037210   -0.006741
H     -2.608026   -1.679319    0.303387
H     -1.112627    2.111006    0.764185
H     -1.309583    1.545851   -0.957791
H      1.244585    2.141874   -0.450552
H      2.930216   -0.045769   -1.091991
H      2.760831   -1.328934    0.167388
H      3.186453    0.357009    0.655381
H      0.318052   -1.376708    1.424772
H      0.012323   -1.680243   -0.347701
18

C     -2.363041   -0.089141   -1.045750
C     -1.284692   -0.513660   -0.047762
C     -1.100534    0.519302    1.077250
C      0.371517    0.703305    1.167092
C      1.015830    0.061826    0.204302
C      2.503160    0.110955    0.031234
C      0.096559   -0.672769   -0.706813
H     -2.502953   -0.873115   -1.819945
H     -2.100635    0.874067   -1.534126
H     -1.585888   -1.485833    0.402913
H     -1.574941    1.496403    0.839398
H     -1.497830    0.134922    2.041159
H      0.860565    1.320809    1.914317
H      2.807929   -0.485590   -0.854217
H      2.830043    1.161918   -0.115077
H      2.999422   -0.306035    0.932604
H      0.139146   -0.213331   -1.718676
H      0.386343   -1.744033   -0.767902
18

C      2.681081   -0.100004   -0.374329
C      1.236576    0.011385    0.004287
C      0.723180    1.059792    0.629053
C     -0.741016    0.922710    0.840055
C     -1.052397   -0.515169    0.388667
C     -2.293176   -0.592634   -0.506535
C      0.214674   -1.021203   -0.316078
H      2.959403    0.739193   -1.045976
H      3.311941   -0.064474    0.538608
H      2.867840   -1.058829   -0.902143
H      1.299229    1.933079    0.919509
H     -0.990803    1.067321    1.913010
H     -1.269072    1.683515    0.224803
H     -1.218779   -1.149725    1.287013
H     -2.157691    0.023878   -1.421218
H     -3.181956   -0.223307    0.047854
H     -2.477833   -1.646024   -0.806562
H      0.088800   -1.069504   -1.420017
18

C      2.627912    0.830921   -0.027822
C      1.223864    0.332221   -0.164756
C      0.161352    1.088754    0.055200
C     -1.112112    0.336640   -0.125168
C     -1.903854    0.295592    1.184227
C     -0.663843   -1.065030   -0.582553
C      0.867358   -1.067099   -0.522048
H      2.815770    1.637290   -0.767451
H      3.352876    0.006504   -0.193650
H      0.214179    2.135362    0.340752
H     -1.722417    0.826290   -0.915431
H     -1.304804   -0.177557    1.992512
H     -2.839051   -0.286283    1.041166
H     -2.177691    1.326358    1.495398
H     -0.998817   -1.243598   -1.628081
H     -1.078184   -1.874860    0.058204
H      1.230867   -1.762049    0.265454
H      1.306596   -1.339454   -1.505954
18

C      2.487581    0.905251   -0.190534
C      1.093978    0.358046   -0.209911
C      0.013364    1.109626   -0.061516
C     -1.229549    0.296806   -0.192418
C     -2.169041    0.537516    0.990077
C     -0.735896   -1.158304   -0.274344
C      0.777740   -1.071164   -0.473382
H      2.492281    1.973332    0.116242
H      3.103902    0.325105    0.527469
H      2.932494    0.818922   -1.203662
H     -1.741313    0.575859   -1.139590
H     -1.662955    0.300433    1.951085
H     -3.071336   -0.102427    0.890261
H     -2.492382    1.600230    1.007333
H     -1.215948   -1.690981   -1.124120
H     -0.953342   -1.717233    0.663335
H      1.315830   -1.730184    0.241693
H      1.054591   -1.330834   -1.518019
18

C      2.151243    0.849917   -0.726466
C      1.389283   -0.025499    0.268983
C      0.194291    0.691529    0.794539
C     -0.934811    0.073946    0.485302
C     -2.288898    0.586963    0.869493
C     -0.709273   -1.165108   -0.306611
C      0.815477   -1.293720   -0.383082
H      1.496297    1.148040   -1.573992
H      2.523117    1.763294   -0.215931
H      3.025485    0.291355   -1.121860
H      0.241176    1.617985    1.359074
H     -2.368372    0.644414    1.975404
H     -3.080497   -0.091636    0.487856
H     -2.444228    1.597701    0.436994
H     -1.147278   -1.048725   -1.321398
H     -1.159552   -2.041699    0.207198
H      1.150678   -2.176583    0.202274
H      1.145862   -1.422174   -1.437778
18

C      2.039331    1.037911   -1.043001
C      1.447423    0.090223   -0.000910
C      0.275792    0.715354    0.673629
C     -0.843157    0.042090    0.456470
C     -2.176239    0.459615    0.997597
C     -0.632770   -1.153890   -0.403438
C      0.880657   -1.189420   -0.641969
H      1.274899    1.340534   -1.791456
H      2.460301    1.941484   -0.552718
H      2.223119   -0.163654    0.753802
H      0.328494    1.623782    1.266599
H     -2.142711    0.474345    2.107243
H     -2.964126   -0.251735    0.672049
H     -2.432323    1.473432    0.624280
H     -1.181221   -1.030029   -1.362110
H     -0.977216   -2.072318    0.119093
H      1.317682   -2.083272   -0.144580
H      1.102065   -1.254454   -1.730579
18

C      2.429145   -0.667262   -0.168105
C      1.040880   -0.226901    0.182510
C     -0.037432   -0.961196   -0.044558
C     -1.286948   -0.270338    0.380497
C     -2.202029   -0.018436   -0.819959
C     -0.793803    1.034536    1.023005
C      0.716195    1.088537    0.796894
H      2.497925   -0.859023   -1.259555
H      3.163297    0.119816    0.104474
H      2.678533   -1.597234    0.384718
H     -0.011696   -1.947867   -0.497801
H     -1.816223   -0.883216    1.140748
H     -3.118121    0.516321   -0.490614
H     -1.683433    0.594607   -1.588928
H     -2.506240   -0.985193   -1.275003
H     -1.298586    1.942826    0.625688
H      0.984767    1.911298    0.099840
H      1.243771    1.208726    1.766161
18

C      2.532551    0.748097    0.050314
C      1.187347    0.090473    0.034496
C      0.224680    0.416404   -0.813467
C     -1.013787   -0.379765   -0.588933
C     -2.170437    0.531331   -0.170372
C     -0.624332   -1.375742    0.519566
C      0.776742   -0.976957    0.985304
H      3.038297    0.591508   -0.925611
H      3.163477    0.314898    0.854725
H      2.416152    1.837074    0.233071
H      0.324851    1.184488   -1.574819
H     -1.282942   -0.921497   -1.522077
H     -3.081457   -0.076618    0.014223
H     -2.393802    1.258484   -0.980098
H     -1.916431    1.090671    0.756300
H     -0.579120   -2.404532    0.102232
H     -1.339423   -1.372526    1.372008
H      0.737634   -0.555793    2.013147
16

C      2.452364    0.764656    0.081394
C      1.245096    0.223740   -0.057813
C      0.002501    0.873765    0.298739
C     -1.004109    0.060585    0.030018
C     -2.440858    0.393732    0.277675
C     -0.551422   -1.249965   -0.536782
C      0.976580   -1.134528   -0.605912
H      3.336788    0.213157   -0.210882
H      2.566414    1.761588    0.488025
H     -0.093386    1.867380    0.719213
H     -3.010215    0.300687   -0.670475
H     -2.553504    1.430125    0.662160
H     -2.860488   -0.312966    1.023533
H     -0.849143   -2.075635    0.145074
H      1.467428   -1.913480    0.017092
H      1.315954   -1.202840   -1.661061
16

C      2.574041    0.822359    0.152606
C      1.360277    0.283998    0.220302
C      1.004191   -0.906165    1.040389
C     -0.497743   -1.076020    0.777296
C     -0.843814    0.022040   -0.182093
C     -2.215436    0.250047   -0.731444
C      0.196837    0.776433   -0.485297
H      3.394814    0.396076    0.715143
H      2.757597    1.692568   -0.464910
H      1.564196   -1.794627    0.675749
H     -1.064532   -0.950477    1.723685
H     -0.715752   -2.067568    0.324994
H     -2.194907    0.168438   -1.838545
H     -2.571967    1.261535   -0.444096
H     -2.921556   -0.506508   -0.329279
H      0.173754    1.627871   -1.154502
16

C      2.696455    0.372375   -0.224703
C      1.280419   -0.046238   -0.028787
C      0.351715   -0.028377   -0.970256
C     -0.958856   -0.478628   -0.403158
C     -2.022054    0.611911   -0.520325
C     -0.588670   -0.731325    1.027167
C      0.695017   -0.479217    1.226426
H      2.874413    1.341683    0.285643
H      3.379483   -0.398596    0.188882
H      0.521183    0.268382   -1.997764
H     -1.295258   -1.417788   -0.892504
H     -2.231596    0.820557   -1.591010
H     -2.963539    0.273823   -0.037528
H     -1.683140    1.550740   -0.030249
H     -1.266910   -1.077073    1.796436
H      1.211338   -0.582230    2.171732
16

C     -2.110822    0.956177    0.794413
C     -1.285959    0.292906   -0.300101
C     -1.047159   -1.152216    0.009427
C      0.246948   -1.391445    0.146831
C      0.970816   -0.147255   -0.041213
C      2.457889   -0.004976   -0.048590
C      0.112245    0.824057   -0.312940
H     -2.215613    2.043085    0.590541
H     -3.122369    0.499713    0.842414
H     -1.764105    0.411040   -1.296083
H     -1.817206   -1.907837    0.096065
H      0.681965   -2.358858    0.360704
H      2.918957   -0.804445    0.568524
H      2.751722    0.981153    0.369483
H      2.832758   -0.087941   -1.089945
H      0.389934    1.846842   -0.535241
20

C      2.750570    0.705661    0.563116
C      1.481152   -0.034735    0.966859
C      0.739244   -0.587356   -0.262523
C     -0.577506   -1.281790    0.088528
C     -1.343649   -0.232952   -0.716781
C     -2.291834    0.619710    0.131273
C     -0.030221    0.468644   -1.059966
H      2.512756    1.591745   -0.062412
H      3.443858    0.030578    0.017655
H      0.828380    0.652169    1.548412
H      1.765309   -0.880385    1.628728
H      1.383935   -1.224591   -0.908942
H     -0.815212   -1.278702    1.176263
H     -0.650962   -2.293241   -0.367562
H     -1.841821   -0.665083   -1.613021
H     -1.771469    1.039303    1.019353
H     -2.687626    1.456529   -0.481642
H     -3.144133   -0.002977    0.475405
H      0.050562    1.498997   -0.646819
H      0.198666    0.418477   -2.146833
20

C      2.642806    0.805472    0.280797
C      1.395328    0.161095    0.874497
C      0.618272   -0.643452   -0.174717
C     -0.666289   -1.257944    0.381266
C     -1.491232   -0.393349   -0.570626
C     -2.401569    0.609086    0.144767
C     -0.208712    0.228704   -1.120339
H      3.168668    1.381138    1.070514
H      3.329444    0.026069   -0.112832
H      2.366391    1.501511   -0.538438
H      1.692218   -0.504955    1.713274
H      1.244008   -1.392227   -0.710558
H     -0.843831   -1.039097    1.458571
H     -0.749916   -2.340143    0.139763
H     -2.032653   -0.996547   -1.332981
H     -3.224543    0.065662    0.654683
H     -2.842643    1.306454   -0.598024
H     -1.836930    1.197838    0.900037
H     -0.119639    1.320888   -0.923789
H     -0.039178   -0.036202   -2.186772
20

C      2.477105   -0.246249    1.159211
C      1.503378   -0.623166    0.048152
C      0.717112    0.609119   -0.428326
C     -0.433132    0.992830    0.505413
C     -1.438721    0.658414   -0.593393
C     -2.365916   -0.508923   -0.242562
C     -0.292865    0.271029   -1.525067
H      3.062762   -1.140642    1.459199
H      3.180236    0.537309    0.804389
H      1.927201    0.130628    2.047373
H      0.819082   -1.423108    0.408008
H      2.086259   -1.027863   -0.807106
H     -0.415683    2.079149    0.737712
H     -0.523673    0.354999    1.413276
H     -1.993918    1.554353   -0.950141
H     -1.788928   -1.390920    0.110304
H     -2.953086   -0.799332   -1.138935
H     -3.069663   -0.196921    0.557429
H     -0.200697    0.968929   -2.384650
H     -0.296853   -0.799634   -1.831194
20

C      2.643977    0.356491   -0.063515
C      1.346068    0.390970    0.738853
C      0.402287   -0.747497    0.323756
C     -0.926585   -0.681586    1.070237
C     -1.653275   -0.459991   -0.251260
C     -2.338637    0.905139   -0.309488
C     -0.324940   -0.514854   -1.000755
H      3.164829   -0.612978    0.087702
H      2.436945    0.495748   -1.145518
H      3.312431    1.175197    0.276695
H      1.593500    0.277566    1.816527
H      0.855437    1.379947    0.602913
H      0.873274   -1.754427    0.388723
H     -1.184517   -1.678697    1.490485
H     -2.334370   -1.298888   -0.517619
H     -3.210537    0.912863    0.377875
H     -2.698758    1.096632   -1.342108
H     -1.642136    1.719342   -0.013803
H     -0.260454   -1.398903   -1.671896
H     -0.054538    0.437925   -1.508712
20

C      2.407149    0.081210    0.956023
C      1.278062    0.731076    0.160850
C      0.537672   -0.301845   -0.706875
C     -0.422660   -1.202983    0.070279
C     -1.603016   -0.614463   -0.700994
C     -2.562047    0.172775    0.197304
C     -0.643947    0.289916   -1.473734
H      3.137305   -0.396379    0.268453
H      2.003362   -0.685163    1.650710
H      2.934854    0.855463    1.551770
H      0.575739    1.232615    0.862547
H      1.714793    1.509409   -0.501539
H      1.218700   -0.877011   -1.373938
H     -0.276519   -2.276453   -0.175916
H     -0.450280   -1.007399    1.165827
H     -2.019717    0.908428    0.830248
H     -3.297331    0.713613   -0.434162
H     -3.112291   -0.531940    0.854959
H     -0.618741    0.020329   -2.551353
H     -0.801087    1.378803   -1.301364
20

C      2.484651    0.475424   -0.641329
C      1.683261   -0.359359    0.353948
C      0.507319    0.402362    0.961015
C     -0.466341   -0.570591    0.292190
C     -1.386378    0.077536   -0.757239
C     -2.508668    0.873337   -0.096437
C      0.712969   -1.325089   -0.322752
H      3.209644   -0.170463   -1.179735
H      3.037254    1.275630   -0.105634
H      2.319674   -0.853631    1.121202
H      0.483472    0.319530    2.069516
H      0.419120    1.452322    0.601660
H     -1.019409   -1.195772    1.028946
H     -1.840165   -0.723025   -1.380532
H     -0.805679    0.747979   -1.428832
H     -2.091535    1.701420    0.514510
H     -3.166080    1.307579   -0.878803
H     -3.119697    0.211049    0.553173
H      0.803949   -2.357708    0.079607
H      0.742640   -1.288530   -1.435381
20

C      3.032214    0.326403   -0.129233
C      1.833909    0.221519    0.806556
C      0.632555   -0.437235    0.106950
C     -0.618435   -0.500779    0.984461
C     -1.353442    0.406972   -0.001047
C     -2.545242   -0.267611   -0.686147
C     -0.102743    0.476968   -0.876118
H      2.801665    0.976506   -0.999452
H      3.347704   -0.679420   -0.479542
H      1.569750    1.236720    1.175329
H      2.126693   -0.396394    1.682012
H      0.877250   -1.429043   -0.335774
H     -0.495988   -0.020903    1.980839
H     -1.034340   -1.530871    1.047413
H     -1.616006    1.392404    0.444122
H     -3.357372   -0.427739    0.053736
H     -2.927182    0.387354   -1.497179
H     -2.256803   -1.248809   -1.121824
H     -0.222449    0.004757   -1.876351
H      0.308263    1.509201   -0.929659
20

C      2.951784   -0.316320    0.018178
C      1.819975    0.562702   -0.499495
C      0.489355   -0.201189   -0.570441
C     -0.209684   -0.370631    0.779966
C     -1.370134    0.490352    0.282573
C     -2.699801   -0.263768    0.192432
C     -0.670087    0.662681   -1.065253
H      3.076240   -1.203813   -0.637330
H      3.897908    0.263624    0.012990
H      2.740755   -0.649730    1.056200
H      1.731293    1.481476    0.121417
H      0.564831   -1.156235   -1.137043
H      0.326613    0.105415    1.630405
H     -0.484206   -1.430438    0.977999
H     -1.457552    1.448782    0.841116
H     -3.067729   -0.491759    1.214818
H     -2.585353   -1.216093   -0.369470
H     -3.451954    0.369528   -0.323149
H     -1.208917    0.192543   -1.917750
H     -0.393337    1.722872   -1.259069
20

C      2.826195   -0.100911   -0.130090
C      1.649039    0.829724    0.149009
C      0.386837    0.037854    0.521010
C     -0.814217    0.954801    0.729333
C     -1.514600    0.297147   -0.458733
C     -2.805284   -0.440788   -0.090519
C     -0.315686   -0.624116   -0.665031
H      3.045217   -0.723673    0.763342
H      2.602736   -0.763931   -0.992353
H      3.726731    0.501992   -0.371753
H      1.918270    1.496006    0.997011
H      1.464114    1.468504   -0.743016
H      0.539910   -0.657862    1.376854
H     -1.313440    0.723590    1.696832
H     -1.651324    1.011141   -1.300038
H     -2.639886   -1.145188    0.753371
H     -3.169460   -1.012945   -0.969508
H     -3.583672    0.294755    0.202255
H     -0.532545   -1.698532   -0.474373
H      0.181064   -0.447570   -1.644511
20

C      2.939500    0.543732    0.006291
C      1.623370    0.020078    0.583478
C      0.443871    0.964435    0.361216
C     -0.231764   -0.091585   -0.517331
C     -1.560360   -0.626886    0.044430
C     -2.690276    0.381133   -0.146926
C      0.947643   -1.037927   -0.287605
H      2.826744    0.852217   -1.055720
H      3.724976   -0.236972    0.083973
H      1.718828   -0.297470    1.645261
H     -0.098312    1.180361    1.308211
H      0.699950    1.883171   -0.211675
H     -0.305808    0.224779   -1.582214
H     -1.826267   -1.562870   -0.492720
H     -1.461433   -0.867869    1.126001
H     -2.469696    1.321682    0.400594
H     -2.825016    0.608611   -1.225855
H     -3.637405   -0.043745    0.247131
H      0.687660   -1.950901    0.292844
H      1.493797   -1.263973   -1.230291
18

C      3.210436   -0.560043   -0.212823
C      2.215893    0.317261   -0.356236
C      0.927388    0.163258    0.414455
C     -0.148722    1.183537    0.037787
C     -1.038139    0.051377   -0.475124
C     -2.338071   -0.115841    0.316841
C      0.039452   -0.967643   -0.106529
H      3.118084   -1.413942    0.451631
H      2.362247    1.159760   -1.024543
H      1.087254    0.110038    1.514659
H      0.143185    1.881619   -0.777521
H     -0.556819    1.708750    0.929782
H     -1.209476    0.109818   -1.573061
H     -2.851276   -1.046743   -0.003582
H     -2.139721   -0.172102    1.409201
H     -3.008346    0.746435    0.117240
H     -0.259538   -1.670943    0.702084
H      0.446168   -1.484598   -1.004251
18

C      3.130230   -0.346703    0.291993
C      2.036530   -0.613836   -0.422711
C      0.818724    0.267433   -0.363972
C     -0.347993   -0.283744   -1.181355
C     -1.164596   -0.448882    0.100202
C     -2.414802    0.433992    0.150350
C      0.004640    0.096990    0.918978
H      3.173539    0.521409    0.942884
H      3.989195   -1.004844    0.224644
H      1.037453    1.332555   -0.601279
H     -0.760150    0.473051   -1.885262
H     -0.137537   -1.261498   -1.669864
H     -1.383091   -1.515427    0.330328
H     -3.158944    0.066637   -0.587164
H     -2.864510    0.384096    1.164206
H     -2.169671    1.492912   -0.082795
H     -0.204677    1.071530    1.413259
H      0.415661   -0.665673    1.617570
18

C      2.987621   -0.773078   -0.239601
C      2.066887    0.152361    0.036295
C      0.704008    0.089969   -0.607569
C     -0.225210    1.220699   -0.162542
C     -1.132901    0.205302    0.527298
C     -2.539800    0.128047   -0.072598
C     -0.210593   -0.925327    0.078271
H      2.769807   -1.590512   -0.920593
H      3.969507   -0.716774    0.219002
H      2.323975    0.961371    0.714213
H     -0.694296    1.721235   -1.037487
H      0.222778    1.939873    0.558191
H     -1.144140    0.329170    1.633097
H     -3.084212   -0.733963    0.366943
H     -3.096580    1.058720    0.165048
H     -2.501247    0.003943   -1.176599
H      0.254666   -1.454563    0.940015
H     -0.670268   -1.616472   -0.661374
18

C      3.022337    0.001200    0.208530
C      1.962734    0.170874   -0.585923
C      0.631531    0.591924   -0.022277
C     -0.458796    0.616849   -1.088037
C     -1.188709   -0.509530   -0.357560
C     -2.570382   -0.115342    0.173185
C     -0.100379   -0.529930    0.712292
H      3.976952   -0.294377   -0.214347
H      2.945047    0.153962    1.280905
H      2.075867    0.018005   -1.655886
H      0.682264    1.538162    0.561850
H     -1.016265    1.579277   -1.046752
H     -1.208991   -1.443379   -0.960718
H     -3.266232    0.037334   -0.678352
H     -2.967495   -0.929362    0.815278
H     -2.520622    0.821197    0.769926
H     -0.449826   -0.210306    1.719052
H      0.450964   -1.496559    0.728845
18

C      3.051083   -0.236233    0.316166
C      1.907783   -0.151709   -0.368234
C      0.575869   -0.042678    0.333141
C     -0.285014    1.103579   -0.192674
C     -1.322355    0.098161   -0.691285
C     -2.655950    0.207641    0.054199
C     -0.453062   -1.048836   -0.177202
H      3.995214   -0.313762   -0.213121
H      3.057544   -0.229078    1.401844
H      1.941606   -0.162036   -1.454514
H      0.643879   -0.039996    1.444845
H      0.171740    1.661702   -1.039188
H     -0.646165    1.769350    0.622663
H     -3.305633   -0.647521   -0.226093
H     -2.509519    0.204143    1.156468
H     -3.165365    1.149168   -0.239019
H     -0.912253   -1.638773    0.647161
H     -0.089400   -1.683119   -1.015146
18

C      2.984906    0.100440    0.158206
C      1.785642   -0.427938   -0.097179
C      0.515473    0.356271    0.124945
C     -0.419422    0.333545   -1.084408
C     -1.457336   -0.429775   -0.263606
C     -2.757345    0.347560   -0.050562
C     -0.522760   -0.409051    0.945332
H      3.083378    1.114004    0.534734
H      3.882481   -0.485631   -0.010365
H      1.727101   -1.446000   -0.473196
H      0.677789    1.388371    0.510853
H     -0.741871    1.355836   -1.382901
H     -0.039513   -0.267694   -1.940479
H     -1.632513   -1.457628   -0.651114
H     -3.415644   -0.200638    0.655573
H     -2.563632    1.369961    0.340470
H     -0.904606    0.190854    1.801122
H     -0.202127   -1.432488    1.242585
18

C      2.815192    0.702760   -0.949467
C      1.751566    0.961630   -0.187258
C      1.019541   -0.148261    0.527373
C     -0.242663    0.312397    1.259277
C     -1.094206   -0.550259    0.328351
C     -2.054129    0.258716   -0.548841
C      0.165648   -1.007943   -0.405804
H      3.177906   -0.311599   -1.086117
H      1.435194    1.993712   -0.075139
H      1.686865   -0.754096    1.180401
H     -0.452397    1.402600    1.179958
H     -0.272544   -0.055413    2.308241
H     -1.601381   -1.383183    0.864235
H     -2.516807   -0.408032   -1.306462
H     -2.858405    0.692093    0.081973
H     -1.522994    1.083613   -1.071709
H      0.204225   -0.694980   -1.473860
H      0.359391   -2.093755   -0.265141
18

C      2.853650    0.706374   -0.084995
C      1.740439    0.299308   -0.696000
C      0.822104   -0.716439   -0.072805
C     -0.026028   -0.150279    1.066530
C     -1.289592   -0.390992    0.241282
C     -2.036337    0.894806   -0.125271
C     -0.440631   -0.951899   -0.899433
H      3.491131    1.440576   -0.564634
H      3.131617    0.313739    0.888514
H      1.337768   -1.665009    0.197204
H      0.170849    0.922934    1.289438
H      0.009979   -0.794808    1.971834
H     -1.954800   -1.159048    0.694901
H     -2.841892    0.662205   -0.853003
H     -2.495924    1.330529    0.786617
H     -1.349983    1.644447   -0.575617
H     -0.489571   -0.352293   -1.836792
H     -0.632778   -2.034152   -1.067759
18

C      2.955787    0.252197   -0.355781
C      1.625088    0.351106   -0.400569
C      0.748158   -0.350853    0.608003
C     -0.287242    0.570249    1.252186
C     -1.404907   -0.256218    0.617532
C     -2.261833    0.523134   -0.384821
C     -0.369295   -1.167492   -0.036936
H      3.562696    0.766328   -1.093934
H      3.449556   -0.337401    0.410600
H      1.166802    0.949631   -1.183502
H      1.306942   -0.932769    1.374571
H     -0.245353    1.607659    0.848730
H     -2.012188   -0.784208    1.384789
H     -2.945904   -0.175516   -0.910673
H     -2.870991    1.278426    0.154690
H     -1.629507    1.041705   -1.137769
H     -0.374355   -1.131812   -1.150019
H     -0.413455   -2.204165    0.362914
18

C      2.778373    0.705595    0.003734
C      1.445257    0.725052   -0.066917
C      0.629335   -0.535223    0.087688
C     -0.504746   -0.389475    1.102284
C     -1.526932   -0.581368   -0.017452
C     -2.410268    0.643761   -0.259731
C     -0.394017   -0.723143   -1.032405
H      3.340741    1.626513   -0.111100
H      3.318201   -0.220644    0.175300
H      0.940254    1.671727   -0.240055
H      1.235860   -1.452827    0.262649
H     -0.552039    0.609310    1.592633
H     -0.522850   -1.229602    1.830528
H     -2.116796   -1.517601    0.095869
H     -3.128668    0.765052    0.577923
H     -1.805411    1.570224   -0.366713
H     -0.375161    0.077905   -1.805901
H     -0.351134   -1.745254   -1.468323
16

C      3.148908   -1.344729   -0.268495
C      2.252629   -0.596944    0.033361
C      1.157904    0.317804    0.402899
C     -0.022309   -0.432602    1.019410
C     -0.883949   -0.077699   -0.189963
C     -2.083161    0.813165    0.147009
C      0.291538    0.679308   -0.803261
H      3.935373   -2.001294   -0.533613
H     -0.354214    0.048970    1.965018
H      0.128299   -1.531236    1.121125
H     -1.168429   -0.973615   -0.785494
H     -1.772670    1.699773    0.741333
H     -2.563389    1.160357   -0.791859
H     -2.825755    0.230823    0.731875
H      0.625417    0.229966   -1.765883
H      0.133808    1.777952   -0.869176
16

C      2.599477   -1.402526    1.762109
C      1.767748   -1.154353    0.925287
C      0.754741   -0.852250   -0.095618
C     -0.648360   -0.861612    0.496030
C     -0.772915    0.633775    0.204556
C     -1.875694    0.983424   -0.799359
C      0.631260    0.639402   -0.394626
H      3.329448   -1.620139    2.496739
H      0.854708   -1.479948   -1.008197
H     -1.328424   -1.473969   -0.137423
H     -0.837564    1.229866    1.140943
H     -2.869288    0.799393   -0.339431
H     -1.787918    0.372003   -1.723549
H     -1.803215    2.057389   -1.071298
H      0.654167    0.848114   -1.487282
H      1.331827    1.281433    0.185408
16

C      3.290517   -0.171950    0.721430
C      2.151721   -0.394976    0.394462
C      0.760938   -0.668294   -0.005127
C     -0.260334   -0.220254    1.036790
C     -0.826225    0.796948    0.046038
C     -2.261481    0.471500   -0.378717
C      0.208353    0.358209   -0.990151
H      4.290039    0.024091    1.008494
H      0.606944   -1.717335   -0.340115
H      0.185005    0.287280    1.920878
H     -0.967227   -1.034411    1.312172
H     -2.361363   -0.587102   -0.704030
H     -2.556830    1.135958   -1.217300
H     -2.947967    0.653002    0.474359
H     -0.225049   -0.118405   -1.897560
H      0.912960    1.185738   -1.227337
16

C      3.063788    0.720272    0.867361
C      2.102725    0.210970    0.347321
C      0.929187   -0.411568   -0.288258
C     -0.145603   -0.823720    0.715798
C     -1.104646    0.195750    0.103797
C     -2.322099   -0.448205   -0.553890
C     -0.029688    0.607774   -0.900359
H      3.907201    1.167507    1.323988
H      1.202952   -1.227993   -0.991770
H      0.101412   -0.580948    1.773842
H     -0.463023   -1.881066    0.575165
H     -1.371080    1.013876    0.809334
H     -2.888046    0.313611   -1.130124
H     -2.985059   -0.884480    0.222549
H     -0.281496    0.360769   -1.955867
H      0.283475    1.667449   -0.764598
16

C      0.697093    1.445925   -2.578735
C      0.942770    0.882669   -1.541462
C      1.242002    0.195597   -0.277265
C      0.513023    0.845976    0.891050
C     -0.301187   -0.428720    1.085306
C     -1.791078   -0.202196    0.828997
C      0.430547   -1.082196   -0.084535
H      0.481060    1.940250   -3.489145
H      2.331793    0.060839   -0.101357
H      1.209471    0.991872    1.746078
H     -0.098585   -0.930318    2.057903
H     -2.220276    0.411750    1.648522
H     -1.957887    0.322018   -0.137229
H     -2.317131   -1.179608    0.804312
H      1.066789   -1.931981    0.246310
H     -0.228403   -1.341879   -0.944462
16

C      2.782527    0.797274    0.962766
C      1.916511    0.078655    0.530280
C      0.858710   -0.799286    0.001972
C     -0.418039   -0.764762    0.839811
C     -1.173473   -0.156272   -0.340366
C     -1.674568    1.258365   -0.062130
C      0.105528   -0.182950   -1.175356
H      3.542469    1.428317    1.342414
H      1.218060   -1.831465   -0.202672
H     -0.361299   -0.098703    1.731237
H     -0.782656   -1.786279    1.084799
H     -1.964538   -0.828953   -0.740104
H     -2.054945    1.716270   -0.999319
H     -2.493038    1.229330    0.687506
H      0.027477   -0.886034   -2.033284
H      0.471275    0.826492   -1.473264
20

C     -1.284825    1.428392   -0.067492
C     -1.237454   -0.052368    0.317609
C     -2.430730   -0.797060   -0.291589
C      0.087513   -0.693754   -0.131623
C      1.284401   -0.084658    0.615766
C      2.637515   -0.387183   -0.010166
C      2.046438    1.009614   -0.117489
H     -2.198866    1.912438    0.337603
H     -1.246481    1.558359   -1.170493
H     -1.314613   -0.126915    1.424985
H     -3.383474   -0.341966    0.054196
H     -2.394764   -0.755157   -1.401635
H     -2.421624   -1.861092    0.027614
H      0.064387   -1.779312    0.106701
H      0.198002   -0.598820   -1.235663
H      1.290293   -0.035598    1.725856
H      3.475390   -0.464310    0.714590
H      2.622705   -0.955715   -0.964917
H      2.528297    1.756259    0.548257
H      1.677891    1.268845   -1.133017
20

C     -2.053757    0.274368   -1.351098
C     -1.082138   -0.225395   -0.275608
C     -1.815514   -0.364222    1.064774
C      0.110029    0.739942   -0.154653
C      1.241984    0.164587    0.711165
C      2.235290   -0.725693   -0.019254
C      2.632756    0.686512    0.382505
H     -2.440369    1.283551   -1.091212
H     -2.911404   -0.424926   -1.450342
H     -1.542373    0.328094   -2.335980
H     -0.711795   -1.227378   -0.587156
H     -2.140031    0.631125    1.437749
H     -1.158561   -0.837728    1.823250
H     -2.710368   -1.012306    0.948210
H      0.478476    1.030483   -1.164331
H      1.078060   -0.060322    1.785952
H      2.062139   -0.856299   -1.109116
H      2.687106   -1.520104    0.611426
H      3.329053    0.724745    1.246809
H      2.711416    1.390966   -0.473089
20

C     -2.036668   -0.328019   -1.100419
C     -0.958891   -0.394707   -0.010803
C     -1.552576    0.039629    1.337869
C      0.254121    0.473137   -0.408272
C      1.448992    0.257324    0.538096
C      2.337921   -0.943474    0.237164
C      2.815224    0.465001   -0.089255
H     -2.899053   -0.973867   -0.829174
H     -2.396442    0.715279   -1.232134
H     -1.628876   -0.692087   -2.067592
H     -0.630559   -1.454448    0.075113
H     -1.847828    1.110552    1.310521
H     -0.818760   -0.112521    2.155957
H     -2.449103   -0.571448    1.576927
H      0.540241    0.238276   -1.458214
H     -0.026820    1.548312   -0.381606
H      1.389254    0.561009    1.604108
H      2.026304   -1.465047   -0.693494
H      3.592149    0.834292    0.612031
H      2.841371    0.692807   -1.176822
18

C     -1.633863   -0.889114    0.834880
C     -1.336150    0.178569    0.081104
C     -2.362028    0.748760   -0.854380
C      0.011678    0.835025    0.180708
C      1.103057   -0.038879   -0.445818
C      2.520706    0.402044   -0.118247
C      1.946535   -0.850352    0.525607
H     -0.906047   -1.303369    1.525834
H     -2.610670   -1.359275    0.770357
H     -2.654441   -0.016741   -1.603949
H     -1.956453    1.632310   -1.391614
H     -3.260605    1.063862   -0.282785
H      0.228965    1.133167    1.230462
H      0.973828   -0.458280   -1.466630
H      2.621620    1.259952    0.581009
H      3.265970    0.193797   -0.914819
H      1.702982   -0.733877    1.603329
H      2.344916   -1.797599    0.104965
18

C     -1.345864   -0.620324    1.206852
C     -1.146525    0.074004    0.076678
C     -2.246764    0.147179   -0.948283
C      0.164124    0.788101   -0.153046
C      1.270490   -0.223903   -0.483302
C      2.690272    0.323633   -0.402678
C      2.174670   -0.629935    0.665756
H     -2.286093   -1.133736    1.385482
H     -0.573740   -0.681690    1.967555
H     -2.511336   -0.876536   -1.288156
H     -1.936874    0.737761   -1.835518
H     -3.144249    0.626086   -0.502695
H      0.410067    1.404300    0.740546
H      0.075101    1.488614   -1.010162
H      1.120312   -0.981286   -1.281797
H      2.714688    1.360858   -0.003501
H      1.980666   -0.148368    1.648354
H      2.591055   -1.654758    0.577927
18

C     -1.216552   -0.984071   -0.834549
C     -0.990219    0.105987    0.185623
C     -2.075548    0.446185    1.173268
C      0.169977    0.791681    0.233405
C      1.307305    0.539381   -0.723408
C      2.699804    0.806180   -0.164799
C      2.205518   -0.621093   -0.340513
H     -2.228684   -1.428914   -0.738181
H     -0.470315   -1.794008   -0.694711
H     -1.119674   -0.568248   -1.859560
H     -2.974330   -0.188980    1.029949
H     -2.376246    1.508166    1.049500
H     -1.702460    0.292643    2.208055
H      0.286847    1.585592    0.967246
H      1.181975    0.712169   -1.812951
H      2.673563    1.081230    0.912187
H      2.666999   -1.144569   -1.203366
H      1.962040   -1.139332    0.612805
20

C      2.455665    0.254849   -0.155659
C      0.979050    0.358336    0.232888
C      0.190659    1.089181   -0.865749
C     -1.294833    1.190826   -0.507235
C     -1.891805   -0.197760   -0.247059
C     -1.109842   -0.937970    0.845788
C      0.379406   -1.037655    0.488879
H      2.877429    1.269307   -0.321037
H      2.577311   -0.340594   -1.086158
H      3.031402   -0.232728    0.659759
H      0.914274    0.954910    1.170217
H      0.309397    0.574649   -1.845336
H     -1.839474    1.676954   -1.344376
H     -1.414635    1.827843    0.395946
H     -2.951107   -0.087991    0.070141
H     -1.875194   -0.793321   -1.186366
H     -1.527436   -1.960702    0.966303
H     -1.226735   -0.404374    1.814729
H      0.498444   -1.676180   -0.414776
H      0.918025   -1.527580    1.329101
20

C      2.354387    0.003447    0.068906
C      0.881254   -0.051566   -0.348928
C      0.241529    1.347735   -0.260556
C     -1.240452    1.299138   -0.644593
C     -2.006802    0.298072    0.224291
C     -1.376660   -1.097188    0.139413
C      0.107206   -1.056165    0.527411
H      2.911670    0.705346   -0.587520
H      2.451840    0.343413    1.122450
H      2.816699   -1.002053   -0.027797
H      0.839837   -0.395978   -1.406984
H      0.335188    1.748931    0.772593
H      0.764749    2.045904   -0.948931
H     -1.351567    1.039867   -1.720434
H     -3.061677    0.249347   -0.120103
H     -2.005975    0.648181    1.279448
H     -1.916389   -1.785326    0.825006
H     -1.481729   -1.492316   -0.895041
H      0.198072   -0.775830    1.600565
H      0.538819   -2.072959    0.400801
20

C      2.284418   -0.079895   -0.145604
C      0.831230    0.155531    0.279487
C      0.098293    1.027832   -0.758891
C     -1.366861    1.244822   -0.359869
C     -2.086677   -0.092436   -0.164911
C     -1.365941   -0.964467    0.866837
C      0.099215   -1.187505    0.471173
H      2.813847    0.891091   -0.250521
H      2.327701   -0.618948   -1.116464
H      2.814502   -0.681969    0.622923
H      0.844556    0.696014    1.252883
H      0.137853    0.543770   -1.760207
H      0.598857    2.017597   -0.836129
H     -1.884620    1.824660   -1.153303
H     -1.417530    1.832404    0.582520
H     -2.168482   -0.630910   -1.134637
H     -1.883050   -1.944830    0.939704
H     -1.416569   -0.475245    1.863840
H      0.138821   -1.781482   -0.469113
H      0.600438   -1.776035    1.270281
18

C      2.496696   -0.145511   -0.333152
C      1.160302   -0.085190   -0.358505
C      0.478516    1.149222   -0.878842
C     -0.717332    1.518220    0.003297
C     -1.646056    0.314191    0.217014
C     -0.884882   -0.858677    0.852615
C      0.312289   -1.284144   -0.007515
H      3.095156    0.708987   -0.634951
H      3.009571   -1.046325   -0.010329
H      0.144488    0.974405   -1.924339
H     -1.284588    2.343040   -0.478151
H     -0.347626    1.885109    0.985498
H     -2.482613    0.612028    0.885055
H     -2.079915   -0.003187   -0.756728
H     -1.574355   -1.721816    0.973185
H     -0.527776   -0.563696    1.864041
H      0.901839   -2.045416    0.549078
H     -0.053715   -1.751242   -0.947272
18

C      2.377721    0.435043   -0.214844
C      1.095861    0.093745   -0.023429
C      0.589197   -1.245404   -0.505006
C     -0.770782   -1.573751    0.117436
C     -1.805299   -0.456921   -0.098455
C     -1.232801    0.974719    0.029677
C      0.148239    1.024901    0.695311
H      2.761226    1.387980    0.136865
H      3.060204   -0.237133   -0.726389
H      0.496706   -1.228415   -1.611916
H      1.305608   -2.047182   -0.223072
H     -0.645843   -1.768271    1.205609
H     -2.627143   -0.594207    0.637190
H     -2.249139   -0.581197   -1.109460
H     -1.939999    1.607937    0.608076
H     -1.148574    1.421995   -0.985682
H      0.519820    2.073022    0.669340
H      0.064998    0.713138    1.758760
18

C      2.329717    0.142773    0.508254
C      0.816873    0.357855    0.554301
C      0.361391    1.170105   -0.675399
C     -1.139306    1.254740   -0.696571
C     -1.858460    0.149757   -0.468237
C     -1.150827   -1.158549   -0.242518
C      0.049838   -0.993949    0.714131
H      2.684663   -0.335379    1.446027
H      2.616843   -0.483696   -0.363515
H      0.604740    0.979891    1.452995
H      0.704792    0.673833   -1.609776
H      0.792581    2.194042   -0.642232
H     -1.633666    2.212796   -0.824451
H     -2.941424    0.203349   -0.414769
H     -1.862606   -1.908891    0.163268
H     -0.783124   -1.530945   -1.223382
H      0.729761   -1.861124    0.561884
H     -0.321786   -1.066609    1.759991
18

C      2.050166    0.352120    0.736681
C      1.011660   -0.145849   -0.270934
C      0.248632    1.013904   -0.960171
C     -1.116453    1.229110   -0.361500
C     -1.876135    0.174269   -0.041142
C     -1.324315   -1.212534   -0.218392
C      0.109995   -1.261170    0.325982
H      1.552465    0.904085    1.562424
H      2.775004    1.025216    0.232539
H      2.612149   -0.507948    1.158066
H      0.116120    0.742713   -2.028839
H      0.827402    1.962196   -0.930951
H     -1.474605    2.236002   -0.170613
H     -2.848595    0.321564    0.418490
H     -1.961937   -1.945119    0.320949
H     -1.323087   -1.473338   -1.299032
H      0.560400   -2.248879    0.092470
H      0.061135   -1.166341    1.433973
18

C      2.240717    0.345128   -0.317253
C      0.835709    0.058197    0.216315
C      0.070366    1.375900    0.406160
C     -1.404257    1.176209    0.651207
C     -2.047488    0.049562    0.303144
C     -1.322061   -1.181521   -0.179536
C      0.064451   -0.856589   -0.747809
H      2.188963    0.862487   -1.299620
H      2.796650    0.988222    0.398106
H      2.804523   -0.604219   -0.439667
H      0.931668   -0.450699    1.201966
H      0.514460    1.967806    1.235134
H     -1.981894    2.016094    1.024522
H     -3.117707   -0.016937    0.473847
H     -1.931272   -1.680892   -0.962705
H     -1.215670   -1.885122    0.674038
H      0.622550   -1.805967   -0.901614
H     -0.049710   -0.357659   -1.736235
18

C      2.161698   -0.068918   -0.188841
C      0.712636    0.042725    0.296227
C      0.165345    1.460427    0.053759
C     -1.306064    1.549825    0.360068
C     -2.124859    0.487737    0.315365
C     -1.618662   -0.922811    0.126867
C     -0.184966   -0.979931   -0.421496
H      2.226700    0.117926   -1.282428
H      2.798887    0.671239    0.340547
H      2.558318   -1.084221    0.025314
H      0.698053   -0.167765    1.389660
H      0.709513    2.194514    0.685161
H      0.311548    1.743072   -1.011574
H     -3.172551    0.633458    0.555842
H     -2.298137   -1.464912   -0.564644
H     -1.651898   -1.437026    1.111419
H      0.215345   -2.007273   -0.277241
H     -0.200906   -0.768066   -1.514004
18

C     -2.089327   -0.049175   -0.139493
C     -0.627956    0.084624    0.301352
C      0.040351   -1.301833    0.405372
C      1.541963   -1.220364    0.545895
C      2.240198   -0.123783    0.213403
C      1.586737    1.180764   -0.158552
C      0.157456    0.979107   -0.673077
H     -2.154927   -0.498539   -1.153778
H     -2.645698   -0.692353    0.575292
H     -2.575190    0.949643   -0.158383
H     -0.618096    0.559689    1.308559
H     -0.373677   -1.847039    1.280613
H     -0.181481   -1.898368   -0.506310
H      2.088207   -2.124080    0.794259
H      2.199277    1.689618   -0.932164
H      1.560952    1.829235    0.743497
H     -0.336144    1.971334   -0.763934
H      0.187355    0.511521   -1.682551
18

C     -2.138637   -0.209908   -0.264185
C     -0.609627   -0.259221   -0.350140
C     -0.016963   -0.981384    0.870265
C      1.503310   -1.100819    0.731343
C      2.154676    0.192048    0.310522
C      1.478658    1.175632   -0.306732
C     -0.023309    1.161798   -0.451556
H     -2.552723   -1.240395   -0.238116
H     -2.464393    0.330362    0.650714
H     -2.553958    0.308477   -1.154638
H     -0.335905   -0.825308   -1.269303
H     -0.252926   -0.419298    1.800474
H     -0.450433   -2.000823    0.962286
H      1.758310   -1.891818   -0.006218
H      3.230707    0.281856    0.419619
H      2.017052    2.066378   -0.616003
H     -0.450236    1.808146    0.346096
H     -0.293602    1.604277   -1.434428
18

C      2.220038   -0.528909    0.278291
C      0.701797   -0.372339    0.386243
C      0.010813   -1.024619   -0.816519
C     -1.511171   -0.958363   -0.661385
C     -1.991108    0.410708   -0.244528
C     -1.188325    1.310408    0.349951
C      0.302759    1.112092    0.474172
H      2.488947   -1.606258    0.242186
H      2.603723   -0.032921   -0.639309
H      2.713369   -0.075560    1.164404
H      0.368374   -0.890662    1.313350
H      0.319132   -0.524703   -1.761855
H     -1.988987   -1.238253   -1.623857
H     -1.828102   -1.694834    0.106921
H     -3.050201    0.632750   -0.333339
H     -1.607879    2.263373    0.657793
H      0.795040    1.688637   -0.339153
H      0.641782    1.529451    1.446634
16

C      2.219683   -0.272220   -0.018850
C      0.894328   -0.078567    0.023865
C      0.345739    1.313585    0.274488
C     -1.134427    1.275167    0.673830
C     -1.913819    0.378172   -0.244802
C     -1.407275   -0.802346   -0.626664
C     -0.047825   -1.253830   -0.155748
H      2.633089   -1.262537   -0.184908
H      2.907377    0.557963    0.112288
H      0.915231    1.807355    1.091723
H      0.461719    1.921569   -0.648029
H     -1.228929    0.897141    1.714997
H     -2.875748    0.706522   -0.624429
H     -1.976719   -1.437290   -1.298598
H     -0.154148   -1.783527    0.814537
H      0.361726   -1.967157   -0.903700
16

C      1.453450    0.957445    1.602387
C      0.628336    0.397367    0.708293
C     -0.140029   -0.854995    1.080347
C     -0.775194   -1.525835   -0.143850
C     -1.454895   -0.509443   -1.018608
C     -0.864002    0.667230   -1.270133
C      0.479119    1.003097   -0.673559
H      1.571020    0.530659    2.594063
H      2.022348    1.848496    1.354257
H      0.524792   -1.586092    1.590274
H      0.016618   -2.034696   -0.735400
H     -1.510490   -2.287910    0.189387
H     -2.440379   -0.717858   -1.423857
H     -1.368697    1.398047   -1.894741
H      0.576934    2.109652   -0.628336
H      1.281069    0.604836   -1.330526
18

C      2.258073   -0.709750   -0.708946
C      1.101127   -0.157526    0.120977
C      0.657033    1.178082   -0.437664
C     -0.628767    1.570622   -0.442374
C     -1.763834    0.645378   -0.080168
C     -1.301372   -0.539624    0.774568
C     -0.051924   -1.176675    0.163853
H      2.602416   -1.682531   -0.297216
H      3.114001   -0.001187   -0.706695
H      1.464785    0.011740    1.158472
H      1.415614    1.897250   -0.734411
H     -0.872605    2.559524   -0.818669
H     -2.538398    1.216705    0.474271
H     -2.222073    0.266524   -1.019010
H     -2.115183   -1.294330    0.831087
H     -1.078888   -0.193278    1.808075
H      0.248135   -2.054478    0.776799
H     -0.288140   -1.536446   -0.862948
18

C      2.297016   -0.528796   -0.565323
C      0.777939   -0.367716   -0.529537
C      0.347423    1.042927   -0.842709
C     -0.939319    1.372909   -0.687119
C     -1.907033    0.339323   -0.180116
C     -1.302145   -0.407118    1.022365
C      0.166453   -0.863073    0.800114
H      2.682062   -0.248215   -1.568356
H      2.776058    0.116319    0.202186
H      2.568348   -1.587858   -0.371536
H      1.066148    1.794070   -1.158138
H     -1.268881    2.391504   -0.867386
H     -2.861493    0.825896    0.113854
H     -2.120607   -0.386622   -0.994526
H     -1.937059   -1.288688    1.257752
H     -1.339550    0.266866    1.906665
H      0.783329   -0.498405    1.651321
H      0.211311   -1.973321    0.810489
18

C      2.350728    0.003231   -0.511195
C      1.020185    0.268477    0.193521
C      0.287244    1.394001   -0.495426
C     -1.051616    1.462201   -0.558594
C     -1.946181    0.334401   -0.100802
C     -1.225991   -0.671451    0.808874
C      0.161271   -1.006855    0.253506
H      2.181044   -0.306450   -1.565134
H      2.977164    0.920994   -0.503104
H      2.907007   -0.801844    0.014741
H      1.236504    0.593753    1.235062
H     -1.501620    2.301173   -1.078498
H     -2.819791    0.757494    0.439076
H     -2.324305   -0.195599   -1.001329
H     -1.831482   -1.600270    0.884792
H     -1.125004   -0.244050    1.830981
H      0.649224   -1.756131    0.914238
H      0.055618   -1.453075   -0.760710
18

C      2.249644   -0.374467   -0.261511
C      0.721796   -0.459470   -0.207248
C      0.251398   -0.917997    1.152366
C     -1.046749   -0.823309    1.458738
C     -2.012706   -0.306047    0.430507
C     -1.455667    0.946503   -0.277156
C      0.074162    0.901840   -0.547827
H      2.694040   -1.372991   -0.061749
H      2.630028    0.345814    0.494640
H      2.576997   -0.043458   -1.270117
H      0.388705   -1.206620   -0.961681
H      0.951827   -1.273168    1.902098
H     -2.982578   -0.071139    0.917411
H     -2.188473   -1.104103   -0.323195
H     -1.998939    1.081933   -1.237614
H     -1.681918    1.837120    0.349565
H      0.561395    1.697566    0.059160
H      0.267039    1.141994   -1.616388
18

C      2.131744    0.233365   -0.427925
C      0.814716    0.073965    0.336565
C      0.019422    1.363189    0.288264
C     -1.323278    1.383743    0.228707
C     -2.146001    0.140488    0.006374
C     -1.394995   -1.137521    0.386392
C      0.012578   -1.122022   -0.212311
H      1.937870    0.474277   -1.495501
H      2.738420    1.049652    0.019538
H      2.722170   -0.706123   -0.372515
H      1.058721   -0.128791    1.402763
H      0.543632    2.304603    0.427836
H     -1.835838    2.340264    0.242575
H     -2.458937    0.097764   -1.058969
H     -1.954324   -2.019740    0.008127
H     -1.334669   -1.214563    1.493773
H      0.531520   -2.070307    0.047618
H     -0.062750   -1.062243   -1.321311
18

C      2.207349    0.142306   -0.380298
C      0.865356   -0.040331    0.333857
C      0.056468    1.239554    0.268881
C     -1.283812    1.244817    0.163650
C     -2.085131   -0.006808   -0.096235
C     -1.326740   -1.277979    0.292793
C      0.098034   -1.238579   -0.256756
H      2.049673    0.392009   -1.451814
H      2.787451    0.960893    0.097193
H      2.806581   -0.790789   -0.312660
H      1.072404   -0.251680    1.406190
H      0.564394    2.186103    0.432009
H     -1.804998    2.197346    0.163876
H     -2.334788   -0.050979   -1.177409
H     -3.036111    0.040084    0.475090
H     -1.308389   -1.393824    1.398946
H      0.615579   -2.185360    0.008990
H      0.056680   -1.166785   -1.366305
18

C      2.366973    0.105506    0.176153
C      0.940031    0.375880   -0.304555
C      0.094853    0.966618    0.835560
C     -1.376574    1.031313    0.430483
C     -1.909003   -0.377193    0.143442
C     -0.983757   -1.173361   -0.744138
C      0.323127   -0.885282   -0.874003
H      2.371816   -0.670697    0.971740
H      2.816521    1.037893    0.579958
H      2.996308   -0.244498   -0.670036
H      0.988956    1.128143   -1.121604
H      0.201701    0.364737    1.765783
H     -1.965746    1.493029    1.251143
H     -1.485708    1.668297   -0.474398
H     -2.904887   -0.300155   -0.342372
H     -2.035282   -0.925844    1.101549
H     -1.370213   -2.073345   -1.212781
H      0.930882   -1.521040   -1.511924
16

C      2.283958   -0.219144   -0.123167
C      0.966496   -0.011853   -0.072651
C      0.409960    1.309971   -0.440079
C     -0.902042    1.552717   -0.357435
C     -1.861132    0.535892    0.196605
C     -1.383360   -0.892866   -0.080122
C      0.047036   -1.098063    0.434902
H      2.707608   -1.170962    0.172546
H      2.959149    0.558353   -0.459023
H      1.065320    2.089909   -0.809896
H     -1.283394    2.524217   -0.643671
H     -1.977334    0.695347    1.290217
H     -2.066965   -1.613546    0.417137
H     -1.417461   -1.083937   -1.175013
H      0.046696   -1.078675    1.546338
H      0.405465   -2.097360    0.103311
16

C      2.395615    0.133017    0.107426
C      1.061884    0.084390    0.095770
C      0.273814    1.287519    0.447273
C     -1.062355    1.275389    0.399449
C     -1.825782    0.079898   -0.100694
C     -1.071987   -1.217079    0.203443
C      0.353962   -1.171735   -0.351929
H      2.984786   -0.729899   -0.177493
H      2.919064    1.034996    0.400056
H      0.778550    2.188315    0.776550
H     -1.610270    2.168519    0.672814
H     -1.977017    0.177337   -1.197329
H     -2.820577    0.047319    0.391141
H     -1.620586   -2.090132   -0.210684
H      0.322667   -1.195845   -1.462763
H      0.898231   -2.072011    0.006970
16

C      2.433615    0.498735    0.052436
C      1.121235    0.259436    0.060369
C      0.600603   -1.089195    0.494347
C     -0.810128   -1.342453   -0.044808
C     -1.730304   -0.161227    0.283372
C     -1.152802    1.135837   -0.216719
C      0.167185    1.339757   -0.276028
H      2.822234    1.469910   -0.228662
H      3.140551   -0.273969    0.328300
H      1.276911   -1.907486    0.162925
H     -0.768199   -1.489184   -1.146785
H     -1.216243   -2.267929    0.415723
H     -2.725210   -0.325742   -0.182494
H     -1.868189   -0.092594    1.384075
H     -1.826355    1.940974   -0.482497
H      0.535094    2.305129   -0.603554
16

C      2.234057   -0.437076    0.456875
C      0.711535   -0.351442    0.539080
C      0.253136    1.088550    0.605743
C     -0.984078    1.423309    0.222458
C     -1.880222    0.417577   -0.379434
C     -1.409612   -0.780894   -0.741285
C      0.064556   -1.081002   -0.656992
H      2.700080   -0.022352    1.376169
H      2.617379    0.105920   -0.433930
H      0.386406   -0.858067    1.474203
H      0.894510    1.843138    1.045376
H     -1.333626    2.439396    0.352693
H     -2.926996    0.652745   -0.522570
H     -2.079470   -1.513290   -1.173852
H      0.214221   -2.177686   -0.557657
H      0.538122   -0.748824   -1.606876
16

C     -2.200684   -0.147314    0.182100
C     -0.792926    0.145121   -0.335018
C     -0.111732    1.225524    0.472116
C      1.220459    1.337505    0.455477
C      2.048001    0.341431   -0.251888
C      1.504695   -0.791291   -0.711826
C      0.067823   -1.130524   -0.413350
H     -2.162985   -0.512711    1.230853
H     -2.817719    0.774953    0.139894
H     -2.684248   -0.917929   -0.454462
H     -0.701213    1.962064    1.004796
H      1.699687    2.161439    0.968402
H      3.102743    0.533561   -0.400823
H      2.124372   -1.510783   -1.232050
H      0.029951   -1.674475    0.555616
H     -0.326222   -1.796571   -1.209837
16

C     -2.175318    0.075401    0.346576
C     -0.775771    0.254857   -0.241289
C     -0.044944    1.360945    0.479892
C      1.290544    1.409387    0.478004
C      2.075405    0.327149   -0.146835
C      1.482199   -0.816261   -0.509292
C      0.030797   -1.061149   -0.182204
H     -2.116694   -0.201758    1.421349
H     -2.753624    1.019296    0.250247
H     -2.718577   -0.723642   -0.201600
H     -0.877915    0.553407   -1.308166
H      1.797847    2.237154    0.954516
H      3.137183    0.461012   -0.308679
H      2.065571   -1.601903   -0.972585
H     -0.025547   -1.496361    0.839584
H     -0.391155   -1.797533   -0.899518
16

C      1.910531    0.380315    0.252194
C      0.444271   -0.002110    0.470119
C     -0.451846    1.211582    0.349089
C     -1.747357    1.070201    0.046840
C     -2.297107   -0.255608   -0.289974
C     -1.484977   -1.294949   -0.501477
C      0.009798   -1.106681   -0.519618
H      2.228406    1.125459    1.012587
H      2.055244    0.815759   -0.760068
H      2.557723   -0.516862    0.353975
H      0.338403   -0.399281    1.503986
H     -0.069388    2.195818    0.592065
H     -2.400997    1.932520    0.046100
H     -1.908338   -2.260583   -0.743725
H      0.505764   -2.066150   -0.258198
H      0.309870   -0.829432   -1.553895
16

C     -2.002953    0.261625    0.233186
C     -0.601369    0.089155   -0.357818
C      0.350178    1.125975    0.200670
C      1.670575    0.907566    0.191103
C      2.210364   -0.388899   -0.261710
C      1.396843   -1.432695   -0.445574
C     -0.064589   -1.335886   -0.097572
H     -1.978504    0.148587    1.338563
H     -2.401648    1.268243   -0.016256
H     -2.691913   -0.499465   -0.191315
H     -0.665469    0.243314   -1.457809
H     -0.025952    2.084880    0.536886
H      2.350104    1.686824    0.511334
H      3.267472   -0.490426   -0.466342
H     -0.179586   -1.590254    0.978845
H     -0.633554   -2.078543   -0.696191
16

C      2.122966   -0.227048    0.458735
C      0.604635   -0.082572    0.576605
C     -0.107810   -1.329144    0.014041
C     -1.588966   -1.094941   -0.118222
C     -2.058816    0.116765   -0.433772
C     -1.144047    1.269947   -0.537404
C      0.123173    1.171769   -0.119359
H      2.458802   -1.150157    0.977748
H      2.429632   -0.281675   -0.608183
H      2.627344    0.641816    0.933249
H      0.345446    0.002749    1.654512
H      0.298654   -1.591677   -0.987170
H     -2.267845   -1.933603   -0.036506
H     -3.117508    0.257033   -0.609880
H     -1.503956    2.200424   -0.957234
H      0.778296    2.030313   -0.207158
16

C      1.793753   -0.681887   -0.437548
C      1.057809    0.550944    0.088859
C      0.210622    1.159604   -1.005118
C     -1.082860    0.833971   -1.148017
C     -1.742051   -0.148594   -0.211926
C     -1.085654   -0.141876    1.147477
C      0.211244    0.180434    1.287625
H      1.072797   -1.461408   -0.766664
H      2.437762   -0.402652   -1.298865
H      2.442464   -1.106885    0.358151
H      1.812301    1.303498    0.402427
H     -1.656957    1.275403   -1.955655
H     -2.817133    0.107185   -0.104801
H     -1.662396   -1.167819   -0.645018
H     -1.661888   -0.439111    2.018215
H      0.670188    0.139192    2.270860
16

C      1.644467   -0.212203    0.850933
C      0.924259    0.257871   -0.413365
C      0.339970   -0.925824   -1.155163
C     -0.939829   -1.289182   -0.982786
C     -1.832333   -0.553523   -0.017683
C     -1.428229    0.893987    0.106624
C     -0.148657    1.267773   -0.061132
H      0.935377   -0.714971    1.543785
H      2.453746   -0.925828    0.585700
H      2.102502    0.654833    1.373419
H      1.665499    0.753554   -1.076682
H      0.964368   -1.491620   -1.838721
H     -2.885106   -0.624945   -0.361313
H     -1.750854   -1.031971    0.980930
H     -2.172716    1.633845    0.383938
H      0.127536    2.308204    0.081515
18

C      2.376402    0.220231   -0.500072
C      0.909361    0.202601   -0.169257
C      0.284638    1.367036    0.107101
C     -1.169976    1.443076    0.495900
C     -1.965990    0.218456    0.043359
C     -1.217732   -1.061096    0.414753
C      0.146380   -1.103044   -0.284101
H      2.562274    0.896850   -1.361090
H      2.954240    0.578532    0.377901
H      2.736445   -0.795366   -0.768902
H      0.859986    2.287496    0.149282
H     -1.245668    1.563002    1.598001
H     -2.963550    0.225702    0.532241
H     -2.118375    0.262757   -1.056992
H     -1.817373   -1.945316    0.108765
H     -1.075670   -1.105096    1.517298
H      0.746875   -1.927041    0.158067
H     -0.002267   -1.328780   -1.362254
18

C      2.287851    0.317533   -0.450629
C      0.823458    0.166610   -0.142651
C      0.060130    1.273965   -0.022754
C     -1.405734    1.225003    0.332458
C     -2.036643   -0.135356    0.032034
C     -1.155025   -1.258701    0.570261
C      0.220905   -1.224477   -0.104235
H      2.419706    0.901416   -1.386258
H      2.793898    0.846133    0.384601
H      2.770944   -0.673315   -0.585422
H      0.527376    2.253331   -0.084109
H     -1.516349    1.443942    1.415542
H     -1.947725    2.011158   -0.234321
H     -2.188539   -0.257754   -1.063125
H     -1.642878   -2.237041    0.373583
H     -1.038992   -1.145322    1.670395
H      0.901612   -1.912079    0.442483
H      0.126004   -1.595044   -1.147854
18

C      2.401946    0.139750   -0.232485
C      0.911775    0.032991   -0.059506
C      0.158077    1.149391   -0.153634
C     -1.336618    1.148986    0.053998
C     -1.955662   -0.235450   -0.157875
C     -1.154257   -1.289632    0.600591
C      0.286745   -1.340922    0.086717
H      2.636856    0.603173   -1.214200
H      2.829538    0.765678    0.578993
H      2.880156   -0.861871   -0.194775
H      0.644638    2.112206   -0.285929
H     -1.548202    1.493580    1.089114
H     -1.803527    1.869940   -0.650301
H     -3.004688   -0.235363    0.207254
H     -1.965725   -0.483751   -1.241770
H     -1.167737   -1.070350    1.691090
H      0.890880   -1.956260    0.787174
H      0.295804   -1.842096   -0.904455
18

C      2.535275   -0.246208   -0.149460
C      1.046303   -0.080097   -0.046928
C      0.304062   -1.062520    0.505868
C     -1.185802   -0.941503    0.718441
C     -1.826909    0.120348   -0.181861
C     -1.003955    1.408097   -0.150868
C      0.409993    1.141669   -0.670643
H      2.774714   -1.163225   -0.728554
H      2.974594   -0.329942    0.867013
H      2.995388    0.625273   -0.661891
H      0.799896   -1.936213    0.920529
H     -1.367362   -0.678976    1.782884
H     -1.663671   -1.924714    0.521620
H     -2.859918    0.329471    0.170484
H     -1.888129   -0.259985   -1.225553
H     -0.947882    1.797518    0.888900
H     -1.490386    2.180059   -0.784591
H      0.393790    1.020949   -1.775389
16

C      2.207578    0.284941    0.326238
C      0.734222    0.148859    0.075892
C      0.067775    1.138971   -0.540866
C     -1.380415    1.027163   -0.800131
C     -2.094466    0.041726   -0.249153
C     -1.457420   -0.893834    0.740885
C      0.021573   -1.142695    0.415750
H      2.738293    0.469441   -0.631858
H      2.393253    1.135025    1.016127
H      2.621843   -0.638323    0.783142
H      0.587263    2.034776   -0.859345
H     -1.863396    1.746240   -1.449181
H     -3.153431   -0.040116   -0.458629
H     -2.017907   -1.851316    0.793471
H      0.095882   -1.830594   -0.453991
H      0.499353   -1.630264    1.291650
16

C      2.323907   -0.047039    0.024189
C      0.831651   -0.016145   -0.127809
C      0.231732    1.074301   -0.630837
C     -1.235975    1.129329   -0.772140
C     -2.008416    0.189760   -0.217136
C     -1.407808   -0.875200    0.660472
C      0.006056   -1.242639    0.190760
H      2.807615    0.143616   -0.957296
H      2.642936    0.734108    0.746090
H      2.667365   -1.034624    0.397526
H      0.818602    1.932323   -0.935995
H     -1.687831    1.937908   -1.332171
H     -3.083763    0.241624   -0.332145
H     -2.049059   -1.781089    0.639743
H     -1.362818   -0.495969    1.704072
H      0.505806   -1.890264    0.942678
16

C      2.333520    0.120275    0.069099
C      0.842040   -0.021878    0.002124
C      0.272936   -1.236613    0.072095
C     -1.207939   -1.407983   -0.141175
C     -1.989101   -0.182951    0.354249
C     -1.334827    1.095967   -0.096512
C     -0.004497    1.175047   -0.209211
H      2.615661    1.158367    0.345102
H      2.756365   -0.566408    0.833454
H      2.773426   -0.120781   -0.921191
H      0.882224   -2.122376    0.202844
H     -1.401210   -1.564947   -1.224232
H     -3.033047   -0.225673   -0.022005
H     -2.016518   -0.198776    1.464504
H     -1.942516    1.976140   -0.264656
H      0.453484    2.122591   -0.464488
16

C      2.231017   -0.050755    0.338254
C      0.755874   -0.000797    0.072289
C     -0.000399   -1.098750    0.237499
C     -1.452844   -1.102238   -0.165240
C     -2.086912    0.283372    0.020741
C     -1.189587    1.366003   -0.513865
C      0.140159    1.245744   -0.438521
H      2.441907   -0.645549    1.252751
H      2.747861   -0.516158   -0.526948
H      2.635982    0.971924    0.491693
H      0.444821   -2.022120    0.588797
H     -1.526098   -1.391059   -1.235197
H     -2.008436   -1.851630    0.437236
H     -2.272919    0.468909    1.100601
H     -1.629241    2.276887   -0.898523
H      0.768814    2.066217   -0.761566
20

C      0.938117   -0.894619    1.486765
C      0.935695   -0.506507    0.000619
C      1.373875    0.946627   -0.181437
C      0.094529    1.784933   -0.203414
C     -1.077781    0.813708   -0.345129
C     -0.459596   -0.551634   -0.634764
C     -1.344218   -1.720861   -0.179316
H      0.308018   -0.205066    2.088715
H      1.974114   -0.900401    1.887035
H      1.624762   -1.191023   -0.541769
H      1.895246    1.049097   -1.159120
H      2.068491    1.287779    0.617810
H      0.116153    2.497493   -1.056918
H     -0.001437    2.363841    0.741332
H     -1.654002    0.791294    0.606702
H     -1.758376    1.123033   -1.168253
H     -0.325999   -0.640323   -1.737622
H     -1.595264   -1.643767    0.899809
H     -2.291405   -1.720288   -0.759328
H     -0.820922   -2.683316   -0.361718
20

C      2.087406   -0.629644   -0.105615
C      0.754278   -0.150378    0.474605
C      0.669650    1.371593    0.607483
C     -0.619505    1.799346   -0.084712
C     -1.460625    0.542107   -0.219216
C     -0.453867   -0.594483   -0.350746
C     -1.015718   -1.922993    0.158010
H      2.246799   -0.210248   -1.122202
H      2.919286   -0.306731    0.554815
H      2.097340   -1.738014   -0.163679
H      1.541696    1.892071    0.153065
H      0.623374    1.628139    1.687298
H     -1.153593    2.581298    0.497621
H     -0.384805    2.196334   -1.097269
H     -2.129492    0.596564   -1.105608
H     -2.078894    0.420544    0.698756
H     -0.175927   -0.698504   -1.424626
H     -1.929321   -2.191156   -0.414009
H     -1.272011   -1.855527    1.237388
H     -0.266071   -2.730318    0.018639
20

C      2.091538   -0.536908    0.094965
C      0.861694    0.178413   -0.473187
C      0.536256    1.440465    0.312065
C     -0.972493    1.634691    0.223262
C     -1.531968    0.426389   -0.524184
C     -0.439086   -0.641853   -0.484318
C     -0.619950   -1.554384    0.743737
H      2.992094    0.097069   -0.049693
H      1.976638   -0.733121    1.182211
H      2.251702   -1.497823   -0.438316
H      1.089530    0.471049   -1.523922
H      1.090478    2.319471   -0.083550
H     -1.388498    1.675063    1.252376
H     -1.223072    2.577329   -0.310443
H     -1.724071    0.709888   -1.583030
H     -2.491279    0.082247   -0.078694
H     -0.487004   -1.271524   -1.400604
H     -1.620209   -2.036627    0.715106
H     -0.530559   -0.974678    1.687493
H      0.138259   -2.365155    0.738729
20

C      1.746575   -1.094626    0.051326
C      0.720452   -0.115915   -0.536068
C      0.861167    1.297930    0.022495
C     -0.523067    1.928518   -0.070923
C     -1.491660    0.834152   -0.507878
C     -0.754443   -0.493161   -0.323377
C     -1.055810   -1.093597    1.062789
H      2.770395   -0.785523   -0.248443
H      1.700534   -1.113833    1.160729
H      1.560936   -2.117279   -0.339940
H      0.898109   -0.066955   -1.635226
H      1.160872    1.277144    1.092506
H      1.610940    1.881955   -0.554632
H     -0.533791    2.775929   -0.790722
H     -1.738075    0.969907   -1.584478
H     -2.433957    0.892341    0.078179
H     -1.079183   -1.221249   -1.099854
H     -2.149446   -1.249077    1.179804
H     -0.702598   -0.421695    1.874099
H     -0.567951   -2.084970    1.169615
20

C      1.723533   -1.399224    0.495903
C      0.649436   -0.313646    0.589436
C      1.182925    1.070400    0.227200
C      0.006774    1.834481   -0.380378
C     -1.123885    0.827989   -0.589002
C     -0.505949   -0.552353   -0.381357
C     -1.520994   -1.573260    0.145258
H      2.536342   -1.202184    1.226604
H      2.149903   -1.461197   -0.528382
H      0.263793   -0.281691    1.633951
H      1.997934    0.996144   -0.527390
H      1.576998    1.590397    1.127612
H      0.304623    2.286926   -1.351771
H     -0.323163    2.647114    0.303495
H     -1.923921    1.019155    0.161094
H     -1.560071    0.918659   -1.607793
H     -0.110086   -0.909460   -1.360023
H     -1.940479   -1.249835    1.122126
H     -2.352696   -1.687078   -0.582029
H     -1.031015   -2.561337    0.275448
20

C      2.135292   -0.323199   -0.080575
C      0.758848    0.013114    0.505431
C      0.549160    1.520226    0.668951
C     -0.843460    1.841353    0.139222
C     -1.526719    0.507680   -0.117349
C     -0.393299   -0.474505   -0.382052
C     -0.803073   -1.921588   -0.084882
H      2.259535    0.135141   -1.085278
H      2.934447    0.059752    0.589121
H      2.253198   -1.423502   -0.170360
H      0.680205   -0.441156    1.518150
H      1.314104    2.125253    0.133146
H     -1.409456    2.445078    0.879877
H     -0.762707    2.409586   -0.813773
H     -2.221078    0.568852   -0.983554
H     -2.099391    0.211886    0.790458
H     -0.108137   -0.394934   -1.456347
H     -1.660722   -2.210119   -0.729002
H     -1.098955   -2.040720    0.979570
H      0.042206   -2.608196   -0.300754
20

C      1.825247   -0.986173    0.107700
C      0.660083   -0.055172    0.464379
C      0.977483    1.404932    0.156589
C     -0.360924    2.073685   -0.124634
C     -1.383691    0.966731   -0.349133
C     -0.608148   -0.350800   -0.340580
C     -1.432332   -1.502506    0.247621
H      2.057975   -0.934415   -0.977626
H      2.729959   -0.693638    0.681829
H      1.570980   -2.034271    0.370310
H      0.446673   -0.145515    1.554322
H      1.481509    1.895530    1.016244
H      1.624729    1.489219   -0.745198
H     -0.291210    2.746182   -1.007445
H     -1.920260    1.104705   -1.313214
H     -2.119728    1.007582    0.482968
H     -0.336852   -0.603184   -1.391421
H     -2.361097   -1.641776   -0.345433
H     -1.709574   -1.293863    1.303262
H     -0.850823   -2.447251    0.209459
18

C     -0.239766    2.282274    0.488483
C     -0.338520    0.976657    0.219892
C     -1.539479    0.361557   -0.405382
C     -1.318577   -1.137895   -0.242450
C      0.179760   -1.338584   -0.003916
C      0.711024   -0.022959    0.578312
C      2.084833    0.342515    0.002674
H     -1.039900    2.969326    0.231387
H     -2.469989    0.679212    0.113831
H     -1.585816    0.639726   -1.480487
H     -1.662691   -1.695142   -1.140695
H     -1.883003   -1.501064    0.644934
H      0.665670   -1.571171   -0.978150
H      0.362024   -2.185680    0.692632
H      0.778329   -0.098842    1.686263
H      2.812291   -0.468436    0.219275
H      2.458186    1.277971    0.470850
H      2.025624    0.490535   -1.097454
18

C      1.552281   -1.610112   -0.359472
C      0.889530   -0.460916   -0.185469
C      1.428182    0.846855   -0.639142
C      0.559891    1.873542    0.071906
C     -0.729825    1.158851    0.479968
C     -0.394419   -0.335010    0.570875
C     -1.509810   -1.203952   -0.024386
H      2.501025   -1.624326   -0.887054
H      1.158960   -2.543564    0.029602
H      1.306187    0.927556   -1.740993
H      0.350546    2.747984   -0.581719
H      1.096280    2.220747    0.981288
H     -1.502707    1.351293   -0.297852
H     -1.105736    1.543253    1.453054
H     -0.223111   -0.620618    1.632448
H     -2.467311   -0.999372    0.500165
H     -1.270349   -2.280294    0.104608
H     -1.639614   -0.991916   -1.107828
18

C      1.484605    1.348704    0.684582
C      0.791194    0.288703    0.249540
C      1.295267   -1.105928    0.361759
C      0.366739   -1.920500   -0.527735
C     -0.899310   -1.087088   -0.719996
C     -0.514614    0.376974   -0.473159
C     -1.586274    1.112697    0.341842
H      2.442693    1.215631    1.177460
H      1.107218    2.356359    0.545064
H      1.217656   -1.452389    1.413907
H      2.346189   -1.184706    0.007081
H      0.851122   -2.083277   -1.516064
H     -1.651909   -1.439433    0.019186
H     -1.315747   -1.224381   -1.741594
H     -0.360110    0.896879   -1.444534
H     -2.563240    1.057751   -0.183863
H     -1.317353    2.183794    0.455093
H     -1.694127    0.660211    1.351430
18

C     -0.646584    1.688370    1.138758
C     -0.419998    0.517678    0.531191
C     -1.507911   -0.406365    0.115300
C     -0.784706   -1.540408   -0.602362
C      0.687894   -1.459835   -0.197798
C      0.943203   -0.023683    0.252812
C      1.642205    0.765500   -0.855752
H     -1.661319    2.021379    1.333460
H      0.180433    2.320060    1.447429
H     -2.041506   -0.787397    1.012971
H     -2.221886    0.102115   -0.568467
H     -0.856861   -1.394517   -1.701863
H     -1.221203   -2.528256   -0.339370
H      0.872822   -2.153294    0.652308
H      1.564862   -0.013699    1.175637
H      1.025450    0.779426   -1.780738
H      1.820355    1.811236   -0.526726
H      2.624748    0.301690   -1.086789
18

C     -0.799864    1.942876    0.711208
C     -0.531741    0.727220    0.219334
C     -1.508557   -0.393489    0.256167
C     -0.931204   -1.426498   -0.704147
C      0.555928   -1.102361   -0.861776
C      0.725270    0.377751   -0.508545
C      1.981687    0.622084    0.334397
H     -1.747745    2.141771    1.201686
H     -0.081193    2.750856    0.621732
H     -1.569498   -0.802470    1.287838
H     -2.513984   -0.062734   -0.084884
H     -1.433820   -1.334640   -1.692555
H     -1.080549   -2.459002   -0.320132
H      0.894885   -1.288231   -1.903033
H      1.139540   -1.753324   -0.172537
H      2.875575    0.251351   -0.210147
H      2.115703    1.709070    0.512402
H      1.909565    0.099770    1.312994
18

C      1.910584    0.897818    0.594771
C      0.579739    0.165246    0.778350
C      0.639296   -1.274367    0.254426
C     -0.688525   -1.533607   -0.460713
C     -1.229217   -0.174178   -0.889453
C     -0.516202    0.796097   -0.015908
C     -0.869052    2.083807    0.085089
H      2.710369    0.401533    1.184228
H      2.203666    0.941806   -0.476574
H      0.298598    0.170166    1.854273
H      0.790234   -1.995619    1.086877
H      1.467888   -1.401762   -0.477996
H     -0.551529   -2.205899   -1.335380
H     -1.401177   -2.008013    0.249914
H     -2.328809   -0.123181   -0.732427
H     -0.984157    0.030622   -1.954050
H     -1.691320    2.478267   -0.503818
H     -0.340386    2.751264    0.758391
16

C      2.087744   -0.750768   -0.383994
C      0.797890   -0.537432   -0.117895
C     -0.165559   -1.635925    0.143566
C     -1.450737   -0.933070    0.597474
C     -1.313178    0.561925    0.272013
C      0.124298    0.753501   -0.050563
C      0.673142    1.950610   -0.270664
H      2.772815    0.062894   -0.574370
H      2.477454   -1.760511   -0.412266
H     -0.349120   -2.191166   -0.801939
H     -2.342026   -1.369423    0.096345
H     -1.556447   -1.068274    1.695387
H     -1.611536    1.185810    1.142601
H     -1.932605    0.823842   -0.613158
H      1.719306    2.061619   -0.517186
H      0.068561    2.846370   -0.205352
18

C     -1.333719   -1.527058    0.103639
C     -0.858185   -0.098185    0.379682
C     -1.109280    0.835018   -0.812955
C      0.067028    1.743897   -0.802539
C      1.016983    1.322494    0.016843
C      0.651510    0.047169    0.699820
C      1.536630   -1.089568    0.166909
H     -1.182235   -2.160587    1.003066
H     -2.413220   -1.529470   -0.157930
H     -1.434514    0.291651    1.249792
H     -2.051040    1.410544   -0.684363
H     -1.128287    0.279860   -1.776394
H      0.165458    2.622247   -1.431906
H      1.972680    1.824437    0.130411
H      0.806175    0.151878    1.796064
H      1.369723   -1.243716   -0.921291
H      1.316154   -2.033657    0.707815
H      2.608139   -0.846954    0.333336
18

C      1.928330   -0.695539   -0.360184
C      0.703225   -0.126705    0.357591
C      0.748032    1.398274    0.511436
C     -0.613170    1.840411    0.111444
C     -1.351666    0.845903   -0.352193
C     -0.620456   -0.452375   -0.351682
C     -1.395131   -1.519669    0.417469
H      2.011274   -0.278118   -1.386637
H      2.846314   -0.443381    0.210893
H      1.844807   -1.800806   -0.422461
H      1.500895    1.871523   -0.155814
H      0.946713    1.668831    1.569254
H     -0.958088    2.867987    0.161236
H     -2.362339    0.977785   -0.725604
H     -0.461793   -0.779098   -1.403428
H     -1.582220   -1.194378    1.464051
H     -0.815132   -2.466820    0.434048
H     -2.369596   -1.713827   -0.079420
18

C      1.937432   -0.323458   -0.002406
C      0.712495    0.416109   -0.558869
C      0.397175    1.703060    0.212327
C     -1.087609    1.775221    0.174004
C     -1.635666    0.653706   -0.266046
C     -0.615934   -0.383718   -0.595598
C     -0.715976   -1.535967    0.414460
H      2.835398    0.324627   -0.088324
H      1.799460   -0.586646    1.067414
H      2.120237   -1.248735   -0.588488
H      0.953593    0.719492   -1.602367
H      0.716657    1.631234    1.274853
H     -1.663747    2.628542    0.515672
H     -2.708137    0.497101   -0.325504
H     -0.799947   -0.777034   -1.619405
H     -0.534613   -1.174001    1.449558
H      0.018793   -2.330492    0.167574
H     -1.729610   -1.989042    0.371145
18

C     -1.297241   -1.002476   -0.530608
C     -0.744971    0.035442    0.463519
C     -1.162885    1.456424    0.043412
C      0.075445    2.062017   -0.521082
C      1.138783    1.321831   -0.250825
C      0.802835    0.106378    0.542528
C      1.572234   -1.123386    0.042685
H     -0.912704   -0.812972   -1.555683
H     -2.406575   -0.948166   -0.554209
H     -1.021568   -2.030081   -0.214542
H     -1.160466   -0.196883    1.469576
H     -1.472706    2.041182    0.936418
H     -1.981916    1.476556   -0.707816
H      2.145557    1.608214   -0.537020
H      1.099803    0.296997    1.597894
H      2.661338   -0.972396    0.201429
H      1.263775   -2.023153    0.615436
H      1.401263   -1.295526   -1.041112
18

C     -1.316610   -0.834835   -0.625016
C     -0.607094   -0.085305    0.517456
C     -0.899119    1.422988    0.435632
C      0.366542    2.005916   -0.085013
C      1.370138    1.143009   -0.078481
C      0.942317   -0.169025    0.485980
C      1.555045   -1.338964   -0.292557
H     -0.970795   -0.466826   -1.614767
H     -2.414188   -0.678842   -0.553571
H     -1.130184   -1.926372   -0.549389
H     -0.985379   -0.490066    1.482746
H     -1.100932    1.836023    1.447553
H     -1.747044    1.670889   -0.239428
H      0.469137    3.031332   -0.423107
H      1.311582   -0.219123    1.534619
H      2.660950   -1.318739   -0.188764
H      1.188455   -2.302577    0.119674
H      1.307179   -1.279484   -1.373569
18

C      2.036462   -0.700834    0.148286
C      0.759218   -0.186772   -0.516301
C      0.815905    1.285167   -0.731795
C     -0.235691    1.906504   -0.228244
C     -1.190131    0.972733    0.424383
C     -0.494231   -0.399394    0.352044
C     -1.392355   -1.470831   -0.267800
H      1.948745   -1.792580    0.330065
H      2.215484   -0.183543    1.115823
H      2.904090   -0.526338   -0.522298
H      1.605711    1.793404   -1.275695
H     -0.391869    2.977264   -0.308826
H     -2.155914    0.992576   -0.126263
H     -1.357216    1.278325    1.479573
H     -0.219170   -0.717935    1.383582
H     -2.310092   -1.596787    0.345170
H     -0.854671   -2.442380   -0.299199
H     -1.684274   -1.188577   -1.302504
18

C      1.208724   -1.123129   -1.117199
C      1.019056   -0.330141    0.179803
C      1.344466    1.105964   -0.057454
C      0.272219    1.880118    0.003043
C     -0.964642    1.108437    0.297752
C     -0.440543   -0.279464    0.696317
C     -1.356416   -1.417928    0.223676
H      0.617654   -0.683464   -1.949804
H      2.282385   -1.153628   -1.400575
H      1.689548   -0.746182    0.962958
H      2.334514    1.475573   -0.305130
H      0.292853    2.946911   -0.193961
H     -1.592973    1.069393   -0.618562
H     -1.531844    1.579782    1.128882
H     -0.404179   -0.321661    1.809213
H     -2.346169   -1.331411    0.720211
H     -0.912133   -2.398673    0.496025
H     -1.512519   -1.380497   -0.875198
18

C      1.755919   -0.816095   -1.115757
C      0.899641   -0.295960    0.035622
C      1.259999    1.110852    0.364180
C      0.201706    1.901937    0.415469
C     -1.062022    1.176544    0.123254
C     -0.595844   -0.213057   -0.344393
C     -1.418971   -1.343467    0.282488
H      1.449028   -1.849466   -1.383176
H      2.828887   -0.822720   -0.827756
H      1.063483   -0.924703    0.939075
H      2.265685    1.446365    0.597743
H      0.252441    2.951112    0.687565
H     -1.630951    1.698937   -0.675604
H     -1.673866    1.127923    1.050388
H     -0.716505   -0.264376   -1.451259
H     -1.343578   -1.318758    1.390957
H     -1.048964   -2.325539   -0.081153
H     -2.486088   -1.239530   -0.007644
18

C      2.130818   -0.259914   -0.302385
C      0.853198    0.228373    0.382701
C      0.694608    1.703601    0.231564
C     -0.533820    2.017684   -0.148993
C     -1.404011    0.826901   -0.334652
C     -0.427442   -0.354923   -0.252931
C     -0.998182   -1.528699    0.549940
H      2.133098    0.016241   -1.379149
H      3.019750    0.193694    0.185660
H      2.206695   -1.364346   -0.213464
H      0.903855   -0.004262    1.469791
H     -0.867022    3.040374   -0.288350
H     -1.907501    0.864046   -1.324524
H     -2.164370    0.804352    0.476323
H     -0.218583   -0.705720   -1.289786
H     -1.240205   -1.217000    1.588786
H     -0.257848   -2.355775    0.586333
H     -1.923039   -1.904629    0.063135
18

C      1.988106   -0.198409   -0.433358
C      0.736906    0.061566    0.409386
C      0.655247    1.489312    0.827722
C     -0.535011    2.022708    0.601451
C     -1.465453    1.034636   -0.010287
C     -0.568029   -0.155313   -0.384917
C     -1.225738   -1.503685   -0.072695
H      2.014786    0.470897   -1.320509
H      2.899365   -0.020543    0.176596
H      1.996951   -1.254260   -0.777640
H      0.768204   -0.570526    1.324796
H      1.464960    2.033693    1.302529
H     -1.959219    1.469345   -0.905497
H     -2.233683    0.754860    0.743223
H     -0.368116   -0.106793   -1.480087
H     -1.461143   -1.587757    1.010104
H     -0.541761   -2.331303   -0.356830
H     -2.166373   -1.608426   -0.653987
18

C      2.022144   -0.147424   -0.531278
C      0.762274    0.086336    0.303555
C      0.556990    1.584920    0.549987
C     -0.856409    1.835712    0.167713
C     -1.437480    0.767653   -0.349201
C     -0.517020   -0.401396   -0.418631
C     -1.138018   -1.626663    0.256860
H      1.955420    0.388420   -1.502821
H      2.914922    0.218383    0.019364
H      2.149639   -1.233587   -0.725641
H      0.886786   -0.426151    1.284984
H      0.712495    1.837530    1.620905
H     -1.352301    2.795135    0.270569
H     -2.457867    0.765069   -0.719607
H     -0.323377   -0.632748   -1.489880
H     -1.398055   -1.405797    1.314901
H     -0.420213   -2.473825    0.231119
H     -2.059930   -1.931565   -0.282897
18

C     -1.510890   -0.958120    1.208586
C     -0.710546   -0.425669    0.020349
C     -1.346405    0.841000   -0.575385
C     -0.197360    1.760559   -0.784150
C      0.919141    1.301116   -0.245495
C      0.720770   -0.012129    0.430045
C      1.775725   -1.027227   -0.016832
H     -1.019771   -1.861947    1.627593
H     -2.541863   -1.222108    0.890484
H     -0.682368   -1.210982   -0.769564
H     -2.068642    1.318286    0.122793
H     -1.846278    0.621871   -1.543288
H     -0.270389    2.723978   -1.277969
H      1.853346    1.853963   -0.247433
H      0.799973    0.144953    1.529216
H      1.760485   -1.153932   -1.121124
H      1.578514   -2.009838    0.461786
H      2.786557   -0.683776    0.290386
16

C     -1.038243    2.038702   -0.467724
C     -0.183042    1.037974   -0.278748
C      1.212384    1.201610    0.068828
C      1.795663    0.020060    0.117792
C      0.852975   -1.099323   -0.197279
C     -0.506395   -0.410209   -0.451071
C     -1.579778   -0.871127    0.541385
H     -0.729313    3.069061   -0.345467
H      1.714807    2.142698    0.252866
H      2.843543   -0.117261    0.350118
H      1.198436   -1.631503   -1.109490
H      0.821476   -1.811585    0.655876
H     -0.846971   -0.600713   -1.493002
H     -2.537649   -0.346816    0.338059
H     -1.750504   -1.963024    0.430992
H     -1.267387   -0.658544    1.586864
16

C     -1.884580   -0.613329   -1.063656
C     -0.646543   -0.642348   -0.574644
C      0.388668   -1.536413   -1.053300
C      1.464922   -1.365308   -0.308014
C      1.284146   -0.343967    0.769757
C     -0.151108    0.181183    0.570866
C     -0.173469    1.678871    0.242923
H     -2.168238   -1.261148   -1.883543
H     -2.626402    0.054573   -0.645354
H      2.378857   -1.923638   -0.459600
H      2.053649    0.451609    0.663954
H      1.389477   -0.829470    1.763723
H     -0.765332   -0.018490    1.476824
H     -1.218932    2.024708    0.099727
H      0.405371    1.888483   -0.682708
H      0.269514    2.254684    1.083046
16

C     -1.766820    1.117115   -0.199598
C     -0.942091    0.090692    0.001750
C     -1.317581   -1.300291   -0.133747
C     -0.310398   -2.079911    0.210592
C      0.885851   -1.284050    0.636091
C      0.476940    0.194128    0.455834
C      1.351494    0.908028   -0.581577
H     -1.426320    2.133686   -0.051429
H     -2.790435    0.949001   -0.509636
H     -2.281489   -1.664552   -0.464248
H      1.762724   -1.568647    0.014861
H      1.109096   -1.497693    1.703347
H      0.527151    0.731220    1.428914
H      1.027916    1.964317   -0.694376
H      1.283288    0.402759   -1.569423
H      2.410673    0.904197   -0.247355
16

C      2.016073    0.128218   -0.386383
C      0.745676    0.380878   -0.076522
C      0.120607    1.682445   -0.177187
C     -1.116664    1.612368    0.272400
C     -1.480621    0.237762    0.738993
C     -0.225610   -0.611205    0.479067
C     -0.538116   -1.723338   -0.523071
H      2.425618   -0.865554   -0.259727
H      2.657652    0.913690   -0.765299
H      0.588181    2.584465   -0.550965
H     -1.786971    2.460863    0.307212
H     -1.717916    0.264238    1.824218
H      0.162149   -1.042829    1.428362
H      0.372144   -2.328366   -0.719626
H     -0.903091   -1.298247   -1.483358
H     -1.319112   -2.395389   -0.108113
16

C      2.178594    0.128815   -0.156523
C      0.881659    0.347575    0.048903
C      0.232980    1.632925   -0.100907
C     -1.028007    1.536462    0.271715
C     -1.385852    0.157928    0.731201
C     -0.097943   -0.668110    0.541227
C     -0.288991   -1.803285   -0.469227
H      2.604304   -0.852183    0.010059
H      2.826669    0.929984   -0.488707
H      0.702422    2.544348   -0.448628
H     -1.716711    2.371038    0.264093
H     -1.658904    0.181482    1.806870
H     -2.241888   -0.228616    0.136186
H      0.656241   -2.374250   -0.581631
H     -0.592683   -1.403745   -1.461213
H     -1.071890   -2.500367   -0.103419
16

C     -0.836014    1.798500   -0.087604
C     -0.141051    0.611432    0.580846
C      1.365774    0.553548    0.247815
C      1.547183   -0.749173   -0.466627
C      0.422284   -1.429319   -0.572276
C     -0.655113   -0.684864    0.045235
C     -1.908331   -1.121872    0.155814
H     -0.445477    2.754479    0.320897
H     -0.697279    1.777208   -1.190360
H     -0.296093    0.654657    1.681265
H      1.693602    1.389106   -0.408354
H      1.972462    0.555242    1.178718
H      2.495824   -1.105104   -0.846462
H      0.334081   -2.399968   -1.043454
H     -2.658123   -0.518090    0.650736
H     -2.193730   -2.085781   -0.246190
16

C     -0.057613    2.262405   -0.074590
C     -0.347088    0.962997    0.032073
C     -1.696687    0.397034   -0.255563
C     -1.507682   -1.036752    0.105931
C     -0.271301   -1.299588    0.523397
C      0.606139   -0.089755    0.512446
C      1.783818   -0.279450   -0.445679
H      0.930468    2.638234    0.170779
H     -1.950717    0.500227   -1.331770
H     -2.470911    0.862075    0.391030
H     -2.288308   -1.787534    0.041180
H      0.055363   -2.286669    0.834901
H      0.961996    0.137908    1.540511
H      2.411656    0.636280   -0.463576
H      2.415567   -1.126964   -0.104239
H      1.425299   -0.490448   -1.476830
16

C     -0.709662    2.012371   -0.155549
C     -0.652682    0.690623    0.036874
C     -1.813983   -0.223468   -0.171704
C     -1.253521   -1.528832    0.279856
C      0.012964   -1.433423    0.676955
C      0.545864   -0.042866    0.559439
C      1.722256    0.009140   -0.417502
H      0.154703    2.637527    0.044366
H     -1.623476    2.477987   -0.511147
H     -2.067162   -0.275858   -1.251836
H     -1.811753   -2.459037    0.283860
H      0.588539   -2.278153    1.042013
H      0.841366    0.342609    1.559210
H      2.090656    1.052127   -0.515045
H      1.419939   -0.361225   -1.421381
H      2.555951   -0.619521   -0.038409
16

C     -1.006777    1.277307    1.118559
C     -0.676840    0.219924    0.368575
C     -1.656915   -0.562869   -0.440607
C     -0.810835   -1.664761   -0.985607
C      0.456348   -1.554730   -0.590306
C      0.697769   -0.366536    0.282520
C      1.693791    0.594988   -0.369131
H     -0.255938    1.790785    1.710535
H     -2.031901    1.633007    1.147447
H     -2.463259   -0.976374    0.201470
H     -2.072329    0.054458   -1.264891
H      1.227018   -2.261981   -0.878406
H      1.053709   -0.689947    1.284575
H      1.843600    1.484838    0.277996
H      2.675236    0.091120   -0.498964
H      1.327324    0.930771   -1.363765
16

C     -0.599981    1.728502   -0.637316
C     -0.490727    0.500485   -0.118247
C     -1.541035   -0.550124   -0.244613
C     -0.965958   -1.651726    0.577225
C      0.220355   -1.348791    1.101538
C      0.662187    0.026772    0.714067
C      1.964207   -0.030442   -0.086678
H      0.184410    2.463456   -0.487643
H     -1.477662    2.006842   -1.212169
H     -1.659803   -0.869352   -1.301656
H     -2.504761   -0.205387    0.186796
H     -1.457280   -2.604980    0.739094
H      0.780955    0.660014    1.619635
H      2.274477    0.993611   -0.383563
H      1.838854   -0.648134   -1.002721
H      2.771763   -0.470744    0.536251
16

C      1.862066   -0.894446   -0.027303
C      0.636500   -0.270234   -0.689693
C      0.694507    1.221525   -0.631118
C     -0.315797    1.743008    0.061050
C     -1.242310    0.702704    0.591956
C     -0.613076   -0.553570    0.085349
C     -1.131603   -1.772979    0.267080
H      2.778488   -0.659049   -0.609010
H      1.981089   -0.538569    1.019375
H      0.535834   -0.615324   -1.741015
H      1.469342    1.820665   -1.098779
H     -0.446074    2.808917    0.216293
H     -1.257069    0.720663    1.702281
H     -2.260968    0.836856    0.170087
H     -0.638190   -2.648408   -0.143244
H     -2.052740   -1.901759    0.826693
18

C      2.379725   -0.190201    0.313776
C      0.957457    0.264215    0.192981
C      0.622542    1.478545   -0.212398
C     -0.849421    1.679488   -0.225859
C     -1.416016    0.403159    0.405028
C     -0.232365   -0.574027    0.531936
C     -0.363375   -1.758119   -0.432494
H      2.433422   -1.201766    0.767618
H      2.855956   -0.210219   -0.688840
H      1.340196    2.234343   -0.516694
H     -1.200416    1.791876   -1.274121
H     -1.123176    2.577676    0.368077
H     -1.816100    0.635156    1.416781
H     -2.247124   -0.004345   -0.212279
H     -0.148077   -0.947582    1.576273
H     -1.277404   -2.341296   -0.191498
H      0.513063   -2.432931   -0.334031
H     -0.428887   -1.403971   -1.484256
18

C      2.294032    0.181062    0.181680
C      0.828839    0.459029    0.035730
C      0.363570    1.560853   -0.534246
C     -1.124191    1.575708   -0.540229
C     -1.528317    0.396228    0.347544
C     -0.254975   -0.445208    0.526182
C     -0.304037   -1.738072   -0.295657
H      2.455676   -0.773482    0.724787
H      2.763281    0.107426   -0.821807
H      2.776972    1.001055    0.753715
H     -1.488477    1.421543   -1.578630
H     -1.507205    2.538432   -0.139890
H     -2.366707   -0.176436   -0.107260
H     -1.861381    0.777725    1.338157
H     -0.095894   -0.686963    1.600191
H     -1.141484   -2.377108    0.056342
H      0.641238   -2.307657   -0.171966
H     -0.450941   -1.514133   -1.374642
18

C      2.146446    0.343463   -0.104842
C      0.784306   -0.284787   -0.112854
C      0.563227   -1.540147    0.246212
C     -0.870928   -1.913133    0.137950
C     -1.526827   -0.701475   -0.525893
C     -0.468335    0.416332   -0.526961
C     -0.822456    1.536952    0.457170
H      2.096404    1.384800   -0.485778
H      2.832233   -0.239131   -0.755252
H      2.546298    0.357661    0.930743
H      1.338014   -2.213927    0.598440
H     -1.282496   -2.065022    1.158922
H     -2.461456   -0.414407    0.005063
H     -1.786127   -0.971648   -1.572172
H     -0.348907    0.837285   -1.549568
H     -0.927156    1.136564    1.488989
H     -0.032350    2.317190    0.452516
H     -1.779888    2.013431    0.157313
18

C      2.112929   -0.196026   -0.128322
C      0.623541   -0.370127   -0.086095
C      0.037087   -1.498070    0.283156
C     -1.443354   -1.414313    0.200290
C     -1.721341   -0.018158   -0.358851
C     -0.362773    0.680404   -0.480821
C     -0.304587    1.885582    0.458236
H      2.376451    0.806702   -0.524481
H      2.562535   -0.966765   -0.789112
H      2.531105   -0.300545    0.894750
H      0.576712   -2.382752    0.607132
H     -1.887007   -1.514019    1.212787
H     -1.836674   -2.204083   -0.474958
H     -2.212674   -0.089021   -1.354079
H     -0.178726    1.001866   -1.529591
H     -0.459464    1.571300    1.513416
H      0.680315    2.391391    0.374298
H     -1.094075    2.616634    0.182247
18

C      1.725537   -0.696161   -0.585454
C      0.789983   -0.166548    0.505122
C      0.787051    1.368822    0.562273
C     -0.581378    1.813316    0.036543
C     -1.369925    0.557156   -0.047039
C     -0.632164   -0.512873    0.206896
C     -1.180951   -1.908144    0.207467
H      1.434030   -0.301476   -1.583085
H      2.768984   -0.388009   -0.364291
H      1.692321   -1.805343   -0.610200
H      1.608852    1.828085   -0.030620
H      0.900167    1.680927    1.622743
H     -1.066075    2.531019    0.732494
H     -0.488808    2.262858   -0.975386
H     -2.424418    0.518640   -0.302695
H     -2.017568   -1.982330    0.933697
H     -0.393971   -2.634775    0.498489
H     -1.551666   -2.165164   -0.806955
18

C      0.084888    1.514525    1.318600
C      0.072002    0.888531   -0.075900
C     -1.364384    0.712309   -0.599805
C     -1.643511   -0.793988   -0.581664
C     -0.321984   -1.411273   -0.301466
C      0.605561   -0.505704   -0.029801
C      2.031319   -0.859221    0.275144
H      1.124136    1.598507    1.700800
H     -0.363359    2.530292    1.287185
H      0.673228    1.507821   -0.777449
H     -1.425648    1.087819   -1.645191
H     -2.117351    1.258841    0.010432
H     -2.034521   -1.142800   -1.561409
H     -2.356072   -1.054616    0.230131
H     -0.140491   -2.481732   -0.302770
H      2.463927   -1.435559   -0.569530
H      2.636505    0.059347    0.423589
H      2.075754   -1.473101    1.199106
16

C      0.434391    0.160791    2.072456
C     -0.180987    0.044151    0.897191
C     -1.659111    0.006659    0.725604
C     -1.836378   -0.175221   -0.787720
C     -0.446683   -0.202061   -1.340926
C      0.469166   -0.077827   -0.396638
C      1.948197   -0.088134   -0.638791
H      1.514451    0.176775    2.137583
H     -0.141851    0.241141    2.985319
H     -2.099920    0.973118    1.053643
H     -2.408756    0.668428   -1.229642
H     -2.347275   -1.138173   -0.997036
H     -0.219195   -0.319104   -2.392943
H      2.400102   -0.967272   -0.134038
H      2.175324   -0.143218   -1.724916
H      2.398527    0.839947   -0.229145
16

C     -0.409433   -1.922741   -0.235647
C     -0.488162   -0.597658   -0.119849
C     -1.763461    0.170424   -0.079488
C     -1.302531    1.626980    0.061715
C      0.191761    1.556201    0.084657
C      0.636906    0.316105   -0.016739
C      2.084911   -0.070753   -0.019708
H      0.548870   -2.424781   -0.260102
H     -1.309933   -2.519190   -0.307220
H     -2.326619    0.040385   -1.027740
H     -2.381363   -0.141121    0.790581
H     -1.668888    2.062664    1.015976
H      0.833019    2.423513    0.176183
H      2.738348    0.823571    0.066858
H      2.326373   -0.597531   -0.966348
H      2.290202   -0.746068    0.836871
16

C      2.142373    0.293671   -0.578372
C      0.733821    0.494761   -0.120681
C      0.117397    1.666532   -0.131936
C     -1.211654    1.499316    0.426643
C     -1.382227    0.231766    0.767547
C     -0.157513   -0.568873    0.449747
C     -0.468487   -1.665376   -0.570220
H      2.444557   -0.767683   -0.461068
H      2.827596    0.932124    0.017843
H      0.544797    2.597428   -0.481702
H     -1.947997    2.281299    0.555365
H     -2.285816   -0.160526    1.215919
H      0.280659   -0.996511    1.377177
H      0.455226   -2.229563   -0.817305
H     -0.885880   -1.230742   -1.504640
H     -1.206853   -2.377621   -0.144318
16

C      0.571504   -1.679764    0.849212
C      0.487678   -0.686668   -0.304469
C      1.716853    0.164665   -0.354473
C      1.410868    1.438177   -0.163988
C     -0.023163    1.558716    0.020607
C     -0.564961    0.352373   -0.059939
C     -2.035446    0.090764    0.028377
H     -0.364314   -2.273195    0.919249
H      1.424003   -2.375182    0.695645
H      0.323891   -1.202609   -1.274996
H      2.721799   -0.199305   -0.525201
H      2.121838    2.253506   -0.157091
H     -0.566420    2.481697    0.177201
H     -2.408253    0.385715    1.031560
H     -2.247271   -0.986685   -0.132979
H     -2.568607    0.677795   -0.748715
18

C      2.127161   -0.444160    0.055770
C      0.627563   -0.479185    0.116409
C     -0.162800    0.576362   -0.056996
C      0.320983    1.968846   -0.344566
C     -1.603628    0.219982    0.048847
C     -1.604367   -1.271244    0.397901
C     -0.144862   -1.725927    0.367114
H      2.456528   -0.094328   -0.945006
H      2.520367    0.241861    0.834997
H      2.543237   -1.458288    0.232425
H      0.904648    1.978346   -1.288821
H      0.961066    2.325448    0.489387
H     -0.540355    2.661072   -0.452555
H     -2.091640    0.816811    0.849382
H     -2.110045    0.398630   -0.924211
H     -2.011667   -1.427317    1.419718
H     -2.214936   -1.848073   -0.330812
H      0.022748   -2.438835   -0.468981
20

C      0.108414    1.829832    0.701140
C      0.049830    0.335351    1.057361
C      1.035390   -0.607032    0.341504
C      1.911670   -0.001617   -0.764218
C     -0.141657   -1.422805   -0.202051
C     -1.128198   -0.478060    0.491151
C     -2.069657    0.237608   -0.487873
H      1.033414    2.283707    1.114143
H      0.053666    2.026876   -0.387825
H      0.115483    0.207044    2.160789
H      1.642650   -1.192258    1.067721
H      1.300787    0.478492   -1.557561
H      2.604895    0.747543   -0.327834
H      2.516679   -0.805880   -1.232928
H     -0.172814   -2.447018    0.229940
H     -0.218658   -1.423852   -1.312569
H     -1.695382   -0.993535    1.298212
H     -2.829115   -0.482607   -0.858136
H     -1.521409    0.643573   -1.364140
H     -2.595988    1.064637    0.033174
20

C     -0.288211   -0.288007    1.843534
C     -0.037802    0.804778    0.791083
C     -0.961644    0.833646   -0.437345
C     -1.977890   -0.307383   -0.586625
C      0.255270    0.682838   -1.353934
C      1.178578    0.635669   -0.133675
C      1.974104   -0.672957   -0.025884
H      0.517885   -0.251416    2.605167
H     -0.320805   -1.306750    1.409030
H     -1.252855   -0.087614    2.353956
H     -1.441764    1.830565   -0.546326
H     -2.519133   -0.191138   -1.548958
H     -1.483426   -1.301661   -0.585610
H     -2.719405   -0.262742    0.238185
H      0.426976    1.591374   -1.971766
H      0.254427   -0.252418   -1.957720
H      1.841280    1.526871   -0.080503
H      2.454722   -0.741389    0.972350
H      2.771566   -0.680531   -0.798239
H      1.328128   -1.561736   -0.186719
20

C      2.499932   -0.036513   -0.123803
C      1.053721   -0.015435   -0.627313
C      0.319820   -1.333412   -0.370413
C     -0.624573   -0.625491    0.600665
C     -2.103182   -0.719058    0.197752
C      0.104011    0.704152    0.333922
C     -0.684738    1.807075   -0.380163
H      2.923797    0.987766   -0.180022
H      2.561390   -0.396170    0.926520
H      3.105073   -0.705540   -0.770395
H     -0.175912   -1.699808   -1.295459
H      0.936709   -2.112463    0.130424
H     -0.466456   -0.970025    1.647108
H     -2.256025   -0.483568   -0.876275
H     -2.705881   -0.022152    0.816767
H     -2.467118   -1.751895    0.380450
H      0.600024    1.090419    1.253272
H     -1.080121    1.461987   -1.358973
H     -1.525033    2.146600    0.260738
H     -0.015438    2.673529   -0.564801
20

C      1.599604    0.293434   -1.461746
C      1.213208   -0.547546   -0.243509
C      0.010285   -1.454119   -0.513061
C     -0.785790   -0.741081    0.582867
C     -2.071052   -0.080558    0.063645
C      0.421306    0.174415    0.861926
C      0.209965    1.689633    0.689672
H      1.974233   -0.364995   -2.273469
H      2.396929    1.014969   -1.185961
H      2.079704   -1.114932    0.163480
H     -0.421034   -1.338021   -1.533053
H      0.220540   -2.514706   -0.253216
H     -0.994649   -1.414790    1.443824
H     -1.890062    0.501205   -0.864599
H     -2.492464    0.588482    0.842658
H     -2.820825   -0.867521   -0.162480
H      0.855712   -0.043488    1.863359
H     -0.180430    1.949767   -0.315613
H     -0.502349    2.055520    1.458391
H      1.177167    2.214332    0.836886
20

C     -0.798348    1.348513   -0.809496
C     -0.489723    0.645039    0.524497
C      0.983186    0.335897    0.842465
C      2.010041    0.577813   -0.268830
C      0.645570   -1.147797    0.975989
C     -0.813115   -0.855103    0.629973
C     -1.238913   -1.576350   -0.653160
H     -0.352569    0.831928   -1.682431
H     -0.406977    2.386791   -0.776695
H     -1.897978    1.398214   -0.953072
H     -0.959005    1.202684    1.366031
H      1.304950    0.784574    1.808973
H      3.011031    0.246612    0.079140
H      2.064115    1.661230   -0.504348
H      1.759258    0.009626   -1.189684
H      0.734530   -1.471208    2.036644
H     -1.500684   -1.075641    1.477083
H     -0.476474   -1.472654   -1.454181
H     -1.369591   -2.657949   -0.439078
H     -2.209303   -1.172216   -1.009818
20

C      0.478059    1.499296    1.313708
C     -0.125434    0.828409    0.078287
C      0.830855   -0.040703   -0.758951
C      2.286069   -0.133876   -0.277965
C      0.003372   -1.281489   -0.416947
C     -0.940461   -0.422848    0.427613
C     -2.375243   -0.386349   -0.106538
H     -0.330067    1.921477    1.947305
H      1.159872    2.318971    1.004389
H     -0.679585    1.557932   -0.554631
H      0.770532    0.208796   -1.841787
H      2.787827    0.847395   -0.411146
H      2.827365   -0.890089   -0.884440
H      2.343227   -0.431681    0.791138
H      0.546199   -2.032091    0.199391
H     -0.474558   -1.726714   -1.317727
H     -0.900326   -0.699546    1.505647
H     -2.850621   -1.379511    0.035971
H     -2.396413   -0.129388   -1.187843
H     -2.960671    0.372008    0.454527
20

C     -0.678754   -1.245687    1.398555
C     -0.044931   -0.875764    0.050798
C     -0.789049    0.161920   -0.808541
C     -2.117899    0.714244   -0.273099
C      0.383319    1.130974   -0.653924
C      1.126154    0.097923    0.195528
C      2.396078   -0.437319   -0.465486
H     -0.847486   -0.354700    2.039373
H      0.000146   -1.938857    1.937220
H     -1.643085   -1.767442    1.227738
H     -0.887817   -0.198281   -1.855933
H     -2.001288    1.170871    0.732043
H     -2.871104   -0.099569   -0.223342
H     -2.494216    1.495724   -0.966084
H      0.874568    1.355773   -1.626672
H      0.138006    2.046497   -0.071392
H      1.305495    0.454388    1.235011
H      3.162005    0.365485   -0.505479
H      2.192181   -0.793802   -1.498655
H      2.797677   -1.282377    0.132339
20

C      2.499522   -0.047731   -0.128249
C      1.052746   -0.008730   -0.629063
C      0.311960   -1.327520   -0.397316
C     -0.627185   -0.633889    0.589043
C     -2.106837   -0.711317    0.186533
C      0.108348    0.696784    0.347710
C     -0.675297    1.818012   -0.343115
H      2.928933    0.975128   -0.164718
H      2.560465   -0.428554    0.914614
H      3.100073   -0.707052   -0.788933
H     -0.187052   -1.672737   -1.328725
H      0.925242   -2.119740    0.087026
H     -0.469536   -1.000028    1.628195
H     -2.259852   -0.453664   -0.882370
H     -2.704843   -0.023576    0.820176
H     -2.476205   -1.745574    0.349187
H      0.607757    1.061949    1.273822
H     -1.073905    1.494650   -1.328014
H     -0.001494    2.684295   -0.511453
H     -1.512840    2.149295    0.305649
20

C      2.567127   -0.217224   -0.473809
C      1.061798   -0.142654   -0.735275
C      0.315718   -1.419071   -0.341176
C     -0.459351   -0.641873    0.725607
C     -1.980042   -0.668326    0.515707
C      0.291232    0.645340    0.332796
C     -0.541501    1.796385   -0.249606
H      2.787022   -0.544258    0.565601
H      3.032634    0.773901   -0.656799
H      0.835671    0.165241   -1.780605
H     -0.318586   -1.801981   -1.171150
H      0.966052   -2.205198    0.102856
H     -0.185687   -0.973311    1.752252
H     -2.256334   -0.448852   -0.536891
H     -2.465214    0.071419    1.186124
H     -2.366795   -1.677093    0.771432
H      0.936992    1.003131    1.166558
H     -1.122215    1.478087   -1.140667
H     -1.236344    2.186952    0.522892
H      0.137822    2.619384   -0.555847
20

C     -0.838794    1.693292   -0.251305
C     -0.018474    0.573335    0.404830
C      1.031425   -0.037958   -0.529606
C      2.459646    0.031952    0.019693
C      0.377076   -1.413068   -0.377623
C     -0.684749   -0.808137    0.536988
C     -2.092641   -0.973472   -0.044977
H     -0.205815    2.600274   -0.347799
H     -1.711752    1.943340    0.387098
H     -1.193017    1.409786   -1.264473
H      0.403612    0.907581    1.379661
H      0.966289    0.321935   -1.580208
H      2.808462    1.085925    0.011523
H      3.135378   -0.571347   -0.622247
H      2.511150   -0.355583    1.060259
H      1.015104   -2.126665    0.190192
H     -0.617734   -1.202339    1.575817
H     -2.123967   -0.714111   -1.124398
H     -2.412262   -2.031071    0.065079
H     -2.808938   -0.333669    0.511496
20

C      0.240156    1.567513    1.729087
C      0.068560    0.844399    0.391956
C      1.031883   -0.336543    0.212233
C      1.806042   -0.295076   -1.108503
C     -0.154728   -1.302964    0.192521
C     -1.117640   -0.128377    0.382308
C     -2.066125    0.078672   -0.802312
H      0.243496    0.856083    2.583254
H      1.186424    2.148141    1.727161
H      0.067984    1.559164   -0.462179
H      1.701108   -0.512061    1.084658
H      1.123792   -0.138591   -1.971879
H      2.544347    0.533568   -1.079661
H      2.350897   -1.251952   -1.250462
H     -0.151038   -1.983703    1.071709
H     -0.283284   -1.843587   -0.772237
H     -1.664047   -0.186639    1.350761
H     -2.798077   -0.755147   -0.842859
H     -1.509650    0.115207   -1.763764
H     -2.620103    1.031893   -0.671792
20

C      2.083535    0.073569   -1.097819
C      1.245672   -0.086659    0.172125
C      0.360017   -1.334505    0.165567
C     -0.888910   -0.450367    0.194941
C     -1.760701   -0.585239   -1.056947
C     -0.003552    0.803625    0.190335
C     -0.132784    1.638731    1.467700
H      2.891246   -0.687812   -1.118384
H      1.462036   -0.020598   -2.014465
H      1.866602   -0.014643    1.093080
H      0.455924   -1.953791   -0.754671
H      0.471300   -1.927970    1.099254
H     -1.476586   -0.586517    1.130836
H     -1.158171   -0.467037   -1.983406
H     -2.553098    0.192237   -1.042447
H     -2.243567   -1.584910   -1.067999
H     -0.120067    1.430335   -0.723503
H     -1.130840    2.124395    1.494270
H     -0.015466    1.008550    2.375932
H      0.647407    2.428605    1.475599
20

C     -0.928407    1.912870   -0.082917
C     -0.285625    0.547915   -0.345554
C      1.050415    0.358755    0.381599
C      2.176365   -0.137244   -0.525624
C      0.446340   -0.771070    1.211648
C     -0.890547   -0.578143    0.500379
C     -1.288033   -1.809507   -0.313614
H     -0.338508    2.704773   -0.590443
H     -0.970134    2.137285    1.005071
H     -1.960857    1.921669   -0.491136
H     -0.240461    0.316289   -1.434504
H      1.360513    1.228042    1.004853
H      3.060794   -0.403292    0.090643
H      2.465409    0.668587   -1.232540
H      1.863114   -1.031216   -1.106969
H      0.363438   -0.464189    2.277591
H     -1.698807   -0.248683    1.192073
H     -0.454415   -2.149875   -0.965150
H     -1.565185   -2.636255    0.373735
H     -2.165411   -1.566711   -0.949142
20

C      2.839537    0.161610    1.237335
C      1.641409   -0.580715    0.658748
C      0.762824    0.339358   -0.189965
C     -0.478450   -0.415162   -0.691710
C     -1.522748   -0.688148    0.390793
C     -2.515621    0.202055   -0.344054
C     -1.477441    0.479863   -1.422903
H      3.477507    0.561425    0.420579
H      3.441376   -0.537665    1.854144
H      2.496203    0.997486    1.882607
H      1.993594   -1.443876    0.052863
H      1.345291    0.697257   -1.066783
H      0.457363    1.223983    0.412204
H     -0.226361   -1.325531   -1.281036
H     -1.843029   -1.752779    0.409293
H     -1.257361   -0.286137    1.393715
H     -2.781552    1.112831    0.235908
H     -3.392376   -0.362889   -0.729646
H     -1.186265    1.553083   -1.462331
H     -1.773900    0.063950   -2.410668
20

C      3.038872    0.432023    0.475434
C      1.822943   -0.070759   -0.293085
C      0.583081   -0.066029    0.601554
C     -0.632281   -0.687288   -0.103004
C     -1.894069   -0.668537    0.755851
C     -2.568241    0.249139   -0.255381
C     -1.310273    0.237667   -1.113068
H      3.932478    0.404929   -0.183156
H      3.228289   -0.212937    1.360041
H      2.877251    1.478460    0.811811
H      2.025128   -1.105333   -0.645438
H      1.654165    0.580322   -1.177905
H      0.360196    0.964503    0.958391
H     -0.426989   -1.699905   -0.516799
H     -2.383001   -1.665773    0.811688
H     -1.764723   -0.181291    1.747899
H     -2.789369    1.255290    0.163397
H     -3.433988   -0.233101   -0.759853
H     -0.846686    1.245747   -1.193844
H     -1.472782   -0.257127   -2.095441
20

C      1.681603    0.813791    0.804555
C      1.642012    0.132405   -0.560678
C      0.738767   -1.117070   -0.614586
C     -0.798882   -0.947163   -0.469187
C     -1.322845   -0.799143    0.956391
C     -2.020893    0.494174    0.554055
C     -1.451785    0.380549   -0.854186
H      2.494295    1.570405    0.813953
H      1.884534    0.072023    1.605819
H      0.730012    1.340514    1.009233
H      2.677612   -0.198504   -0.794026
H      1.372351    0.860947   -1.351984
H      1.090868   -1.854004    0.139871
H      0.915423   -1.590394   -1.604847
H     -1.326214   -1.798025   -0.955577
H     -0.515805   -0.599436    1.691554
H     -1.649001    1.383290    1.107633
H     -3.126503    0.384043    0.573809
H     -0.766841    1.218699   -1.083548
H     -2.248708    0.252898   -1.619163
20

C      2.549645   -0.296573    0.164449
C      1.585393    0.230351   -0.897932
C      0.354788    0.923880   -0.291805
C     -0.611540   -0.063544    0.392664
C     -1.908834    0.589319    0.862129
C     -2.705184   -0.298023   -0.084227
C     -1.411969   -0.934640   -0.573046
H      3.467733   -0.679551   -0.328909
H      2.838561    0.515422    0.865100
H      2.090993   -1.131110    0.733611
H      1.272118   -0.604221   -1.561216
H      2.129956    0.969183   -1.524951
H      0.685394    1.683420    0.449760
H     -0.177182    1.468098   -1.103637
H     -0.139742   -0.653649    1.208371
H     -2.130624    0.381563    1.932108
H     -2.004534    1.662601    0.588000
H     -3.305232   -1.036682    0.492069
H     -1.233977   -0.708742   -1.646727
H     -1.345765   -2.017100   -0.326719
18

C      3.191980   -0.304495    0.139155
C      2.018558   -0.303411   -0.493409
C      0.946142    0.666677   -0.106879
C     -0.254359   -0.056670    0.517071
C     -1.159454   -0.756370   -0.496388
C     -2.297516    0.185354   -0.127186
C     -1.397244    0.887545    0.880744
H      3.960736   -1.016192   -0.143708
H      3.394184    0.400006    0.940558
H      1.833474   -1.020915   -1.287340
H      0.648902    1.275350   -0.988575
H      0.028870   -0.715481    1.368547
H     -1.374046   -1.810031   -0.213425
H     -0.839066   -0.636407   -1.555042
H     -3.149484   -0.342070    0.355035
H     -2.592204    0.848486   -0.969809
H     -1.213624    1.952024    0.613376
H     -1.745849    0.746601    1.927285
18

C      2.786272   -0.560304   -0.366303
C      1.889298    0.317596   -0.824957
C      0.783497    0.848209    0.045891
C     -0.253385   -0.241706    0.359669
C     -1.122977   -0.586187   -0.845018
C     -2.344200   -0.054704   -0.107969
C     -1.481204    0.284222    1.097465
H      2.737757   -0.927564    0.654332
H      3.580436   -0.914317   -1.015463
H      1.977297    0.680452   -1.844772
H      0.295703    1.701123   -0.475993
H      1.214762    1.234397    0.994934
H      0.181274   -1.139860    0.853594
H     -1.193608   -1.689779   -0.965538
H     -3.097316   -0.844131    0.107981
H     -2.759956    0.849848   -0.601565
H     -1.456563    1.376587    1.307976
H     -1.737086   -0.333884    1.985748
18

C      3.046832   -0.521323   -0.125463
C      1.729641   -0.724799   -0.201004
C      0.767186    0.166714    0.535188
C     -0.688179   -0.274142    0.304187
C     -1.229233    0.055648   -1.085114
C     -2.263614    0.985561   -0.466457
C     -1.714202    0.673334    0.918782
H      3.452645    0.291485    0.469511
H      3.728932   -1.172134   -0.662841
H      1.359231   -1.547624   -0.806888
H      0.912169    1.218920    0.203097
H      0.986928    0.111742    1.623463
H     -0.873862   -1.332969    0.594434
H     -0.516397    0.613334   -1.730738
H     -1.688640   -0.825605   -1.584318
H     -3.284661    0.559153   -0.582276
H     -1.273134    1.576876    1.393466
H     -2.451641    0.145830    1.562981
16

C      3.419237   -0.048754    0.113944
C      2.322722   -0.423973   -0.217734
C      0.987868   -0.879537   -0.621974
C     -0.076439   -0.377932    0.358039
C     -1.496840   -0.721361   -0.084013
C     -1.811946    0.761095   -0.227653
C     -0.394305    1.108534    0.204160
H      4.381707    0.280887    0.405353
H      0.979026   -1.989529   -0.652408
H      0.118819   -0.672405    1.414121
H     -1.554520   -1.260122   -1.056130
H     -2.087702   -1.201867    0.726285
H     -2.020928    1.052846   -1.280189
H     -2.577605    1.107909    0.500416
H      0.179223    1.615443   -0.603611
H     -0.368318    1.648766    1.175680
16

C      3.238128    0.831123    0.360212
C      2.244410    0.148673    0.350430
C      1.034641   -0.681519    0.339223
C     -0.038279   -0.057978   -0.567337
C     -0.715228    1.185338    0.010781
C     -2.044026    0.443227    0.030094
C     -1.370683   -0.800548   -0.529781
H      4.110278    1.430446    0.368690
H      0.661492   -0.793511    1.380321
H      1.300563   -1.687605   -0.048171
H      0.313693    0.110812   -1.609502
H     -0.381905    1.403830    1.049900
H     -2.774624    0.888473   -0.678897
H     -2.439798    0.292585    1.058571
H     -1.740290   -1.060862   -1.545767
H     -1.398372   -1.652482    0.185520
16

C      3.211076   -0.139804   -0.064479
C      2.077809   -0.481877    0.163489
C      0.698283   -0.897258    0.441399
C     -0.278532   -0.189837   -0.510369
C     -0.509879    1.284634   -0.186225
C     -1.968346    0.990267    0.135593
C     -1.743125   -0.478873   -0.194699
H      4.205783    0.160769   -0.264761
H      0.457324   -0.668760    1.502320
H      0.623477   -1.995128    0.292703
H     -0.041811   -0.360426   -1.585165
H      0.056582    1.657591    0.696072
H     -0.414204    1.932726   -1.083637
H     -2.154593    1.115361    1.225305
H     -2.316473   -0.784827   -1.096030
H     -1.903372   -1.144557    0.682772
18

C      3.070262    0.171392   -0.429385
C      1.678280   -0.363458   -0.563531
C      0.724137   -0.033133    0.316799
C     -0.671668   -0.584856    0.182366
C     -1.428750    0.065767   -0.968612
C     -2.421845    0.654603    0.023463
C     -1.671977    0.002855    1.174688
H      3.507110   -0.147970    0.540352
H      3.056539    1.280596   -0.481521
H      3.702679   -0.218952   -1.253954
H      1.448247   -1.028363   -1.391937
H      0.969313    0.623950    1.147514
H     -0.700395   -1.697315    0.153269
H     -1.921156   -0.711711   -1.593562
H     -3.451307    0.253353   -0.104146
H     -2.364805    1.763980    0.051699
H     -1.247813    0.752340    1.878788
H     -2.276851   -0.783079    1.677722
18

C      2.938586   -0.284168   -0.205268
C      1.517299   -0.696897    0.020746
C      0.581160    0.203045    0.349111
C     -0.847577   -0.222948    0.585508
C     -1.593459   -0.572433   -0.698764
C     -2.550228    0.588643   -0.466121
C     -1.811169    0.937860    0.818263
H      3.549599   -1.173022   -0.467617
H      3.351010    0.175577    0.717642
H      2.992509    0.447464   -1.038968
H      1.250401   -1.744829   -0.087904
H      0.861624    1.246964    0.464846
H     -0.939911   -1.010915    1.366155
H     -0.993474   -0.451017   -1.628609
H     -2.115950   -1.550564   -0.629358
H     -2.388124    1.380070   -1.231126
H     -1.348359    1.948958    0.780969
H     -2.453936    0.778212    1.710506
18

C      2.376022   -0.321568    0.615863
C      1.858456    0.818397   -0.212671
C      0.622688    0.845344   -0.739015
C     -0.377268   -0.270761   -0.551798
C     -1.709194    0.039445   -1.224223
C     -2.387416    0.060446    0.138171
C     -1.060892   -0.251250    0.812183
H      1.755538   -0.446283    1.527586
H      3.420964   -0.111748    0.926007
H      2.364778   -1.260653    0.023936
H      2.520639    1.658926   -0.399103
H      0.341724    1.706570   -1.339734
H      0.016525   -1.271994   -0.836378
H     -2.057248   -0.836531   -1.815220
H     -3.136272   -0.752536    0.261968
H     -2.766928    1.073359    0.392521
H     -0.723812    0.571875    1.481182
H     -1.058303   -1.251038    1.298736
18

C      2.374100   -0.108537    0.575138
C      1.745269    0.499365   -0.645100
C      0.456558    0.318080   -0.979272
C     -0.498089   -0.521534   -0.157208
C     -1.923762   -0.551712   -0.703621
C     -2.423911    0.161428    0.544562
C     -1.004727    0.190200    1.093727
H      2.309159   -1.215740    0.527913
H      1.866782    0.257744    1.491732
H      3.444616    0.180623    0.625132
H      2.368158    1.110574   -1.291810
H      0.100322    0.785736   -1.892815
H     -0.113444   -1.544960    0.049614
H     -2.087853    0.044555   -1.628432
H     -2.328044   -1.584832   -0.767326
H     -2.759539    1.191504    0.291276
H     -0.618635    1.226380    1.222163
H     -0.906960   -0.438874    2.004339
16

C      3.214592    0.335602    0.584181
C      1.865630    0.156587    0.047576
C      0.753475    0.009233   -0.393870
C     -0.605364   -0.170890   -0.932615
C     -1.526183    1.015402   -0.660433
C     -2.411656    0.120778    0.196420
C     -1.483964   -1.057974   -0.058368
H      3.360763   -0.341531    1.450769
H      3.346091    1.387682    0.910813
H      3.960184    0.096500   -0.201801
H     -0.610710   -0.472165   -2.002114
H     -1.042861    1.795374   -0.029032
H     -3.416039   -0.020843   -0.257374
H     -2.432830    0.429252    1.264848
H     -1.978716   -1.867088   -0.638998
H     -0.992409   -1.415919    0.874287
16

C      3.143602    0.175573    0.568717
C      1.775581    0.027552    0.072453
C      0.647743   -0.094214   -0.335737
C     -0.729829   -0.242795   -0.833776
C     -1.609789    0.960393   -0.515736
C     -2.472982    0.094778    0.392471
C     -1.598396   -1.109608    0.070307
H      3.604549    1.078953    0.118965
H      3.127082    0.279814    1.673125
H      3.736903   -0.719715    0.290697
H     -0.772572   -0.545687   -1.902812
H     -1.095730    1.779888    0.035887
H     -2.179734    1.310512   -1.403025
H     -2.336636    0.396266    1.454723
H     -2.162185   -1.878666   -0.500128
H     -1.077608   -1.513043    0.968158
20

C      2.273530    0.456201   -0.561985
C      1.898178   -0.889577    0.046675
C      0.392005   -1.154974   -0.040255
C     -0.399965   -0.214251    0.888456
C     -1.913721   -0.366017    0.767015
C     -1.246143    0.927555    0.313943
C     -1.250066    1.174431   -1.199359
H      1.858158    1.288430    0.044727
H      3.378385    0.558417   -0.601554
H      2.431410   -1.687723   -0.513143
H      2.236232   -0.929828    1.105179
H      0.067797   -1.106580   -1.099251
H      0.210181   -2.196691    0.301580
H     -0.067404   -0.100001    1.942751
H     -2.263316   -1.049822   -0.036648
H     -2.455387   -0.280048    1.732657
H     -1.378279    1.792212    0.998560
H     -1.576055    0.290757   -1.786738
H     -1.956325    2.000764   -1.422045
H     -0.239215    1.486745   -1.531472
20

C      2.393443    0.238726   -0.220205
C      1.846830   -1.060492    0.360800
C      0.358261   -1.266338    0.071648
C     -0.509556   -0.289620    0.887698
C     -2.001344   -0.398102    0.583304
C     -1.244577    0.870252    0.206521
C     -1.061190    1.102230   -1.297708
H      2.232861    0.263552   -1.318340
H      3.483769    0.296571   -0.022316
H      1.899127    1.114335    0.250806
H      2.052108   -1.117444    1.452009
H      0.182132   -1.212850   -1.020767
H      0.097807   -2.298914    0.386586
H     -0.306262   -0.175114    1.974341
H     -2.271403   -1.078865   -0.252979
H     -2.654097   -0.285959    1.474716
H     -1.434629    1.745183    0.863912
H     -1.316331    0.214904   -1.913724
H     -1.730827    1.928969   -1.612807
H     -0.016126    1.408977   -1.504402
20

C      2.648717   -0.193068    0.584162
C      1.668840    0.364668   -0.446370
C      0.501485   -0.588680   -0.713108
C     -0.487476   -0.644718    0.453872
C     -1.872059   -1.136151    0.046152
C     -1.670631    0.322881    0.435924
C     -1.778281    1.322355   -0.721422
H      3.032870   -1.182792    0.257431
H      2.158265   -0.296867    1.574407
H      3.507885    0.502111    0.690971
H      1.285812    1.349464   -0.102715
H      2.210657    0.526102   -1.402266
H      0.865489   -1.607839   -0.965460
H     -0.160387   -1.017051    1.447733
H     -2.012671   -1.335497   -1.038806
H     -2.383510   -1.743666    0.822376
H     -2.070715    0.601183    1.433940
H     -1.489806    0.886009   -1.701314
H     -2.827509    1.675862   -0.795096
H     -1.126974    2.195693   -0.511317
20

C      2.788055   -0.564005   -0.200005
C      1.623857    0.420335   -0.265482
C      0.506053    0.022957    0.702131
C     -0.639341    1.049819    0.633914
C     -1.948852    0.506390    1.201588
C     -1.820636    0.740356   -0.297274
C     -1.802370   -0.523213   -1.168058
H      3.583615   -0.246213   -0.906417
H      2.448014   -1.582885   -0.483515
H      3.213701   -0.590921    0.825739
H      1.996404    1.436140   -0.008423
H      1.232863    0.445374   -1.305155
H      0.908181    0.039620    1.738018
H      0.182888   -1.018784    0.498919
H     -1.928784   -0.550398    1.546012
H     -2.552887    1.275660    1.725953
H     -2.351070    1.640287   -0.673750
H     -1.750850   -1.461553   -0.577446
H     -0.949618   -0.481381   -1.875954
H     -2.739222   -0.557586   -1.761701
20

C      2.891363   -0.622851    0.297644
C      1.814759    0.443104    0.114648
C      0.444714   -0.190425   -0.143325
C     -0.618100    0.902828   -0.335369
C     -1.526697    1.107209    0.870950
C     -2.084794    0.485709   -0.403737
C     -2.429174   -1.000160   -0.274702
H      3.871510   -0.133714    0.479359
H      2.971530   -1.250924   -0.615142
H      2.650544   -1.269463    1.168264
H      1.768544    1.070559    1.031575
H      2.095213    1.092935   -0.743096
H      0.195122   -0.859884    0.708776
H      0.492839   -0.801688   -1.070332
H     -0.368357    1.822415   -0.908339
H     -1.831154    2.173481    0.935553
H     -2.741377    1.147667   -1.008375
H     -2.035411   -1.451275    0.660780
H     -3.533093   -1.112730   -0.266414
H     -2.027981   -1.552793   -1.149625
20

C     -3.052538    0.854106    0.076015
C     -1.851962   -0.030634   -0.246571
C     -0.535606    0.684271    0.071005
C      0.656421   -0.209276   -0.286136
C      1.100723   -1.172169    0.804736
C      1.911106    0.092583    0.526401
C      3.197768   -0.192224   -0.254062
H     -3.017431    1.786874   -0.526300
H     -3.060998    1.114399    1.155952
H     -3.990225    0.310602   -0.165420
H     -1.881781   -0.298970   -1.325339
H     -1.922931   -0.965819    0.350709
H     -0.464797    1.613441   -0.534621
H     -0.517969    0.974997    1.145862
H      0.795531   -0.558311   -1.332932
H      0.513596   -1.129659    1.746344
H      1.524913   -2.126399    0.424756
H      4.008302   -0.433789    0.464179
H      3.486543    0.720133   -0.815640
H      3.101337   -1.034155   -0.974497
20

C     -1.542079   -1.464026    1.572634
C     -1.970581   -0.912389    0.218311
C     -1.906968    0.607227    0.126178
C     -0.901576   -0.242475   -0.644099
C      0.540930   -0.205246   -0.109535
C      1.360012    0.839182   -0.872695
C      2.802367    0.881290   -0.376276
H     -2.400398   -1.438649    2.275535
H     -1.191629   -2.510153    1.454380
H     -2.821363   -1.375520   -0.325238
H     -1.513693    1.128973    1.025873
H     -2.698444    1.055658   -0.510490
H     -1.079612   -0.313213   -1.738763
H      0.575880    0.030548    0.977019
H      0.992944   -1.209352   -0.259844
H      0.902183    1.843410   -0.736976
H      1.360263    0.595981   -1.957798
H      2.832259    1.151279    0.700899
H      3.370368    1.644227   -0.949196
H      3.289137   -0.106750   -0.520827
20

C      3.428606   -0.003245    0.388148
C      2.014808   -0.519226    0.625843
C      1.012510    0.155146   -0.314503
C     -0.397748   -0.398931   -0.075088
C     -1.213565    0.325288    0.991986
C     -1.530957    0.534724   -0.484751
C     -2.802488   -0.157989   -0.974368
H      3.487951    1.088552    0.584297
H      3.758525   -0.221582   -0.649865
H      2.004818   -1.618626    0.462968
H      1.734388   -0.317202    1.682091
H      1.049263    1.257944   -0.166483
H      1.293662   -0.058010   -1.368344
H     -0.588873   -1.490196   -0.169115
H     -1.912727   -0.333656    1.549897
H     -0.711697    1.189649    1.477041
H     -1.253312    1.531287   -0.891006
H     -2.967669   -1.141228   -0.482609
H     -3.675722    0.494669   -0.766922
H     -2.729771   -0.317366   -2.070124
20

C      3.317353    0.145892    0.412706
C      1.918660   -0.409194    0.652194
C      0.897361    0.201681   -0.305045
C     -0.464656   -0.470830   -0.106315
C     -1.370458    0.177713    0.936703
C     -1.660484    0.364671   -0.548608
C     -2.853486   -0.431691   -1.076768
H      4.027982   -0.334057    1.117203
H      3.644004   -0.074860   -0.625333
H      3.331211    1.243948    0.580260
H      1.617762   -0.221057    1.705947
H      1.220546    0.021431   -1.352521
H      0.844982    1.301612   -0.141989
H     -0.559133   -1.574027   -0.208059
H     -2.027530   -0.540108    1.472697
H     -0.958868    1.080014    1.437427
H     -1.456425    1.382664   -0.945294
H     -2.949139   -1.427125   -0.591159
H     -3.784760    0.143781   -0.894953
H     -2.734922   -0.580458   -2.170001
20

C      2.679780   -0.552288   -0.254041
C      1.858589    0.733799   -0.246082
C      0.823708    0.736179    0.880804
C     -0.337801   -0.226352    0.595253
C     -1.648659    0.128463    1.290694
C     -1.490455    0.365234   -0.207167
C     -2.228908   -0.627531   -1.104091
H      3.481812   -0.474339   -1.017991
H      2.040974   -1.423822   -0.507648
H      3.149743   -0.715811    0.739237
H      2.550755    1.589313   -0.091493
H      1.358699    0.870790   -1.229738
H      0.469508    1.776591    1.054739
H     -0.149887   -1.317729    0.505562
H     -2.265921   -0.750314    1.575818
H     -1.642092    1.058654    1.898085
H     -1.400478    1.429280   -0.515365
H     -2.250044   -1.653283   -0.676064
H     -3.273043   -0.280685   -1.248731
H     -1.726280   -0.666147   -2.092687
20

C      2.624389   -0.790341    0.140022
C      1.990860    0.590371   -0.028121
C      0.643983    0.535910   -0.761584
C     -0.444426   -0.138106    0.090865
C     -1.147946    0.759007    1.108560
C     -1.860180    0.349578   -0.174131
C     -2.958074   -0.687759    0.044347
H      3.631040   -0.681387    0.595760
H      2.735165   -1.289250   -0.846174
H      2.007979   -1.426471    0.808484
H      1.861946    1.064583    0.969072
H      2.688183    1.225543   -0.616259
H      0.354183    1.574907   -1.034770
H      0.755908   -0.029866   -1.711344
H     -0.344943   -1.205267    0.382363
H     -0.810487    1.814990    1.032557
H     -2.003788    1.161916   -0.919443
H     -2.727554   -1.375351    0.887442
H     -3.913219   -0.166750    0.263219
H     -3.083019   -1.286256   -0.881772
20

C     -3.097271   -0.764543    0.931460
C     -1.907671   -0.730475   -0.026479
C     -1.593028    0.642786   -0.609488
C     -0.694850    0.047122    0.470939
C      0.658239   -0.485031   -0.018402
C      1.706740    0.630585    0.001133
C      3.068505    0.116829   -0.457030
H     -3.169677    0.146049    1.564965
H     -4.037241   -0.889729    0.355065
H     -1.722462   -1.588870   -0.707355
H     -2.232990    1.478558   -0.254094
H     -1.185535    0.616341   -1.642702
H     -0.776424    0.515608    1.475978
H      0.975831   -1.302345    0.664334
H      0.584373   -0.906564   -1.046129
H      1.803187    1.036267    1.032024
H      1.387159    1.455041   -0.673054
H      3.421097   -0.694195    0.215289
H      3.806575    0.945987   -0.430648
H      3.005444   -0.269421   -1.496712
18

C      3.127865   -0.891518    0.279590
C      2.238376   -0.111192    0.898076
C      1.035493    0.439220    0.185575
C      0.037630   -0.688507   -0.136547
C     -1.146801   -0.818352    0.816993
C     -1.368801   -0.305422   -0.603373
C     -1.717422    1.182377   -0.730274
H      3.007380   -1.170766   -0.762778
H      2.410062    0.156493    1.935653
H      0.586451    1.222943    0.830851
H      1.357586    0.923947   -0.760993
H      0.410913   -1.645073   -0.561998
H     -1.201730   -0.061420    1.628415
H     -1.480748   -1.865156    0.976448
H     -1.838353   -1.030459   -1.301925
H     -1.554635    1.751011    0.208723
H     -1.113341    1.636023   -1.543343
H     -2.789925    1.275850   -0.999080
18

C      2.985690    0.174935    0.784308
C      1.891777    0.411995    0.059678
C      0.888645   -0.662168   -0.227056
C     -0.235132   -0.091294   -1.103473
C     -1.584288   -0.786784   -0.947618
C     -1.408039    0.645592   -0.450444
C     -1.403785    0.829439    1.071805
H      3.689529    0.978177    0.971344
H      3.183401   -0.812102    1.191566
H      0.518573   -1.091904    0.727180
H      1.386490   -1.479509   -0.791150
H     -0.000374    0.212540   -2.146385
H     -1.636366   -1.575327   -0.166354
H     -2.161656   -0.867305   -1.892692
H     -1.870241    1.430310   -1.086478
H     -2.349701    1.325083    1.373068
H     -0.559049    1.486753    1.364772
H     -1.335471   -0.128430    1.627941
18

C      3.148904   -0.663147    0.710152
C      2.164040   -0.324305   -0.123179
C      0.794928   -0.011731    0.403316
C     -0.113226    0.536079   -0.709351
C     -1.190418   -0.416198   -1.220394
C     -1.583670    0.789533   -0.371413
C     -2.069280    0.476921    1.049091
H      4.137849   -0.883502    0.321465
H      2.978241   -0.723077    1.781040
H      2.369505   -0.268622   -1.189011
H      0.380149   -0.915331    0.898810
H      0.303721    1.241548   -1.460416
H     -1.239067   -1.407282   -0.720637
H     -1.414236   -0.299736   -2.301622
H     -2.049798    1.630276   -0.928247
H     -1.854226   -0.565206    1.364554
H     -1.595007    1.180631    1.764474
H     -3.168409    0.623149    1.091378
18

C      2.733493   -1.231796    0.480291
C      2.102967   -0.771795   -0.604601
C      1.126266    0.366232   -0.527037
C     -0.116215   -0.054543    0.273094
C     -1.236245   -0.610170   -0.606869
C     -1.332637    0.803352   -0.055497
C     -2.306057    0.972689    1.107845
H      3.443267   -2.047694    0.390892
H      2.547911   -0.799731    1.459139
H      2.321024   -1.215004   -1.571816
H      0.876407    0.692178   -1.561411
H      1.606927    1.228038   -0.016466
H     -1.868443   -1.367491   -0.096828
H     -1.026509   -0.665020   -1.696697
H     -1.212884    1.617971   -0.802600
H     -2.271374    0.114774    1.814620
H     -2.050070    1.898619    1.663341
H     -3.337827    1.069391    0.710612
18

C      2.631647   -0.038087   -0.413482
C      1.635308    0.723904    0.047426
C      0.639441    0.205566    1.046356
C     -0.223104   -0.907905    0.432056
C     -1.638699   -0.953244    0.994453
C     -1.411255   -0.544188   -0.455711
C     -1.696953    0.932603   -0.737817
H      3.342012    0.369327   -1.125392
H      2.746543   -1.066586   -0.084858
H      1.557808    1.753821   -0.288190
H      0.027361    1.051126    1.424468
H      1.183921   -0.209012    1.921668
H      0.229233   -1.907787    0.255563
H     -1.995797   -2.004335    1.037035
H     -1.688219   -1.307047   -1.214658
H     -0.875457    1.362432   -1.347288
H     -1.825717    1.530412    0.189116
H     -2.638070    1.009001   -1.320733
18

C      2.649770    0.001861   -0.705919
C      1.645077    0.722708   -0.199121
C      0.687688    0.148788    0.806960
C     -0.170300   -0.961996    0.171933
C     -1.522399   -1.172822    0.833574
C     -1.457922   -0.617560   -0.590868
C     -1.809375    0.874161   -0.686333
H      3.332367    0.449478   -1.420835
H      2.799669   -1.032469   -0.411492
H      1.534170    1.760234   -0.500151
H      1.264327   -0.286718    1.650949
H      0.074781    0.970888    1.231209
H      0.323122   -1.908341   -0.135918
H     -1.833304   -2.237245    0.880462
H     -1.783611   -0.459213    1.644559
H     -0.996992    1.420998   -1.207878
H     -2.729820    0.974686   -1.297013
H     -2.007248    1.352562    0.295889
18

C     -2.288829    0.162153   -1.026704
C     -1.571656   -0.859599   -0.152746
C     -1.168990   -0.322925    1.215321
C     -0.098446   -0.609109    0.167368
C      0.574027    0.632566   -0.445943
C      1.839212    0.965022    0.293128
C      2.920187    0.182184    0.224939
H     -2.164558   -0.109626   -2.095307
H     -3.368934    0.179410   -0.772612
H     -1.900271   -1.920625   -0.156886
H     -1.215515   -1.077141    2.028901
H     -1.395739    0.750160    1.398025
H      0.497568   -1.531553    0.337237
H      0.810527    0.429055   -1.512368
H     -0.090505    1.522899   -0.413088
H      1.885432    1.881486    0.874109
H      3.823910    0.456631    0.759183
H      2.912581   -0.730988   -0.362546
18

C      3.417975    0.331227    0.758047
C      2.112525    0.555094    0.601517
C      1.345281   -0.091670   -0.516847
C     -0.118361    0.364501   -0.495210
C     -1.095450   -0.583529   -1.183923
C     -1.059831   -0.497583    0.338131
C     -2.231804    0.250572    0.972439
H      3.964108   -0.321858    0.083925
H      1.611500    1.215794    1.303126
H      1.433028   -1.197402   -0.425610
H      1.791495    0.211813   -1.488012
H     -0.364607    1.443695   -0.600873
H     -0.655687   -1.517281   -1.595174
H     -1.951971   -0.074739   -1.675845
H     -0.621312   -1.378522    0.854691
H     -1.920746    0.636680    1.965193
H     -2.577094    1.105349    0.351175
H     -3.079048   -0.452140    1.113260
18

C      3.367095    0.176531    0.243640
C      2.078548    0.465742    0.059064
C      1.116745   -0.540723   -0.491867
C     -0.269534    0.096805   -0.612309
C     -1.425890   -0.897535   -0.659975
C     -1.179096   -0.074128    0.599388
C     -2.170476    1.065590    0.831644
H      4.034018    0.931351    0.645000
H      3.760404   -0.805406   -0.002024
H      1.452253   -0.853203   -1.503836
H      1.105971   -1.437360    0.167329
H     -0.411488    1.001887   -1.242618
H     -1.147916   -1.968811   -0.561822
H     -2.280902   -0.570891   -1.289896
H     -0.774440   -0.640277    1.465922
H     -2.498249    1.544122   -0.116734
H     -1.693299    1.836609    1.471339
H     -3.063744    0.669695    1.357768
18

C      3.459568   -0.582449   -0.124258
C      2.194859   -0.398758   -0.506134
C      1.154522    0.031275    0.484923
C     -0.174478    0.342769   -0.210612
C     -1.121716   -0.843069   -0.365871
C     -1.404935    0.228840    0.681274
C     -2.552449    1.177710    0.335641
H      4.206799   -0.889245   -0.848935
H      3.758798   -0.429118    0.908424
H      1.928899   -0.555447   -1.548330
H      1.050097   -0.737025    1.283111
H     -0.211773    1.100584   -1.023165
H     -0.758894   -1.805633    0.053935
H     -1.747667   -0.803375   -1.282908
H     -1.248796   -0.088317    1.734997
H     -2.602127    1.407262   -0.750962
H     -3.512763    0.716179    0.645966
H     -2.417944    2.127818    0.892914
18

C      2.697194   -1.070300   -0.441678
C      2.243332    0.163809   -0.679674
C      1.123500    0.762312    0.123179
C     -0.204982    0.076609   -0.209515
C     -0.617681   -1.007451    0.780349
C     -1.319245    0.348287    0.788272
C     -2.735087    0.356316    0.209487
H      3.516152   -1.470398   -1.030459
H      2.260659   -1.685957    0.338786
H      2.714036    0.760409   -1.455608
H      1.367785    0.698188    1.207475
H      1.033394    1.837610   -0.139985
H     -0.505462   -0.082405   -1.268652
H     -1.214125   -1.784898    0.256402
H     -1.074950    0.991116    1.660835
H     -2.838624   -0.309585   -0.674575
H     -2.995648    1.390944   -0.095505
H     -3.450249    0.025396    0.990877
18

C     -2.528710   -1.185806    0.659533
C     -1.601302   -0.472283   -0.310855
C     -1.251857    0.950755    0.104500
C     -0.223360   -0.164374    0.258365
C      0.914350   -0.156256   -0.771581
C      2.031496    0.740881   -0.319205
C      2.794419    0.437094    0.735110
H     -3.583239   -0.936545    0.419913
H     -2.381053   -2.282580    0.577510
H     -1.684935   -0.646511   -1.405321
H     -1.085110    1.645663   -0.746161
H     -1.691634    1.293582    1.065840
H     -0.031417   -0.499347    1.301395
H      0.560040    0.191641   -1.767027
H      1.297242   -1.191611   -0.897430
H      2.241372    1.646081   -0.881373
H      3.602253    1.099026    1.029506
H      2.621447   -0.469413    1.307293
16

C      2.949887    0.767924    1.008276
C      2.042675    0.006390    0.784355
C      0.938597   -0.917772    0.513591
C      0.233191   -0.524640   -0.781640
C     -1.186091   -1.070854   -0.889907
C     -0.962568    0.422566   -0.683628
C     -1.350004    0.956623    0.700124
H      3.746137    1.436753    1.204718
H      1.335475   -1.950404    0.424559
H      0.792807   -0.520180   -1.741816
H     -1.487779   -1.343241   -1.923282
H     -1.553683   -1.635497   -0.005278
H     -1.138226    1.054523   -1.579964
H     -0.666741    1.786908    0.974645
H     -2.386083    1.351473    0.656814
H     -1.307595    0.179430    1.492722
16

C      3.124373    0.995612    0.653887
C      2.321739    0.132825    0.399169
C      1.346973   -0.915005    0.088504
C     -0.038460   -0.479252    0.579035
C     -1.166639   -1.253610   -0.101052
C     -0.874019    0.179683   -0.514217
C     -1.870002    1.213263    0.004633
H      3.828705    1.753144    0.877517
H      1.639998   -1.841010    0.625494
H      1.380439   -1.122290   -1.003758
H     -0.858808   -2.016604   -0.848324
H     -2.061892   -1.393587    0.541099
H     -0.418105    0.305892   -1.520203
H     -1.397965    2.217229   -0.022450
H     -2.764096    1.222128   -0.652796
H     -2.192242    1.001581    1.047750
16

C      2.847722    0.817354    0.309893
C      1.914623    0.083130    0.518493
C      0.779047   -0.807556    0.772271
C     -0.006840   -1.030576   -0.529349
C     -1.486614   -1.367919   -0.348984
C     -1.074993   -0.026272   -0.955982
C     -1.307791    1.217027   -0.087559
H      3.666551    1.462138    0.126504
H      1.170659   -1.786404    1.118853
H      0.164468   -0.385061    1.592700
H      0.477001   -1.588506   -1.359075
H     -1.811439   -1.272042    0.709051
H     -1.212619    0.052496   -2.054857
H     -0.409769    1.867983   -0.124391
H     -2.165348    1.785490   -0.503052
H     -1.544656    0.978716    0.969772
16

C      3.174489    0.451618    1.145182
C      2.196737    0.216273    0.480332
C      1.008354   -0.069009   -0.328126
C     -0.098359   -0.648111    0.568670
C     -1.140971    0.347766    1.050132
C     -1.535025   -0.726350    0.033467
C     -1.754523   -0.180069   -1.385223
H      4.032650    0.658199    1.728975
H      0.705576    0.868546   -0.838910
H      1.277912   -0.820597   -1.098928
H      0.155570   -1.448032    1.297145
H     -1.505496    0.142788    2.078105
H     -1.027867    1.387365    0.674266
H     -1.545208    0.905951   -1.484043
H     -2.816803   -0.342700   -1.659834
H     -1.127037   -0.743640   -2.106921
16

C     -3.157441   -1.174382   -0.683821
C     -2.130039   -0.887051   -0.122302
C     -0.881699   -0.537171    0.560536
C      0.259329   -0.446902   -0.463858
C      0.562189    0.953631   -0.986788
C      1.542798    0.268304   -0.043287
C      1.584581    0.883289    1.350436
H     -4.059200   -1.426571   -1.176932
H     -1.038998    0.414450    1.111722
H     -0.642988   -1.333896    1.295429
H      0.409405   -1.271362   -1.194248
H      0.894418    0.976609   -2.046030
H     -0.037359    1.778259   -0.543068
H      2.481136   -0.082157   -0.523378
H      1.944495    0.128412    2.079710
H      2.269371    1.756536    1.353726
16

C      3.627856   -0.558405    0.256634
C      2.472606   -0.865197    0.099972
C      1.068508   -1.238214   -0.091580
C      0.161279   -0.072080    0.277435
C     -0.145833    0.874357   -0.877277
C     -1.200106   -0.117913   -0.402513
C     -2.349640    0.496222    0.396163
H      4.641933   -0.288828    0.394224
H      0.829324   -2.112789    0.548445
H      0.206412    0.386636    1.289500
H      0.323340    0.608650   -1.849084
H     -0.297194    1.930405   -0.567074
H     -1.396036   -0.965517   -1.094731
H     -2.016772    1.337125    1.042682
H     -3.121704    0.871951   -0.306885
H     -2.803974   -0.286403    1.038376
16

C      2.830498    0.946082   -0.252679
C      2.097046   -0.010194   -0.290547
C      1.207059   -1.182147   -0.337293
C     -0.271433   -0.912087    0.022908
C     -0.503550   -0.274393    1.394063
C     -0.787009    0.519602    0.124517
C     -2.276627    0.692546   -0.157987
H      3.473549    1.785832   -0.219179
H      1.606136   -1.957812    0.349340
H      1.241420   -1.596116   -1.366310
H     -1.014535   -1.706217   -0.203672
H      0.440359    0.082240    1.858604
H     -0.096092    1.367159   -0.065513
H     -2.645166    1.596879    0.369370
H     -2.426264    0.831075   -1.248798
H     -2.875391   -0.182449    0.177464
16

C      3.332619    0.198990    0.865505
C      2.351138   -0.256917    0.334229
C      1.158312   -0.810709   -0.312243
C     -0.099851   -0.208529    0.319769
C     -0.595391    1.088390   -0.314243
C     -1.332669   -0.220139   -0.576496
C     -2.667464   -0.362788    0.152901
H      4.194028    0.599360    1.331972
H      1.217549   -0.612177   -1.404497
H      1.146359   -1.909669   -0.157987
H     -0.274689   -0.307897    1.413567
H     -1.082399    1.783869    0.402387
H     -0.003566    1.458622   -1.178545
H     -1.217225   -0.632183   -1.602025
H     -3.472695    0.110626   -0.446242
H     -2.654056    0.081150    1.171948
18

C      3.058621    0.267851   -0.817442
C      1.901615   -0.429295   -0.176944
C      0.861618    0.267325    0.295003
C     -0.292756   -0.427648    0.966667
C     -1.162437   -1.253161    0.020822
C     -1.709729    0.035097    0.621380
C     -1.884973    1.187814   -0.374304
H      3.786737   -0.477899   -1.199337
H      3.563039    0.924630   -0.077644
H      1.907602   -1.514109   -0.111635
H      0.871181    1.352990    0.249428
H     -0.146159   -0.889453    1.966086
H     -1.576368   -2.176218    0.478693
H     -0.882020   -1.209993   -1.054419
H     -2.462983   -0.106459    1.425265
H     -1.194625    1.120753   -1.242155
H     -1.712439    2.151034    0.149050
H     -2.925922    1.176740   -0.758500
18

C      2.956378    0.411161   -0.492504
C      1.780686    0.014127    0.340853
C      0.731217   -0.621037   -0.185232
C     -0.426088   -1.000376    0.694678
C     -1.744333   -1.206832   -0.045998
C     -1.560632    0.013760    0.848403
C     -1.447009    1.352085    0.108243
H      3.423681   -0.489270   -0.944165
H      3.702310    0.922302    0.150035
H      2.634172    1.106233   -1.296459
H      0.717425   -0.871129   -1.243112
H     -0.262950   -1.689330    1.550721
H     -2.392421   -1.993281    0.395003
H     -1.726594   -1.012202   -1.140510
H     -2.103384   -0.027214    1.816625
H     -1.054891    1.244582   -0.925599
H     -2.452039    1.818905    0.051178
H     -0.775527    2.027517    0.677852
18

C      2.885358    0.157889   -1.033219
C      1.824726   -0.518168   -0.226030
C      0.760967    0.169349    0.194761
C     -0.322356   -0.484179    1.003993
C     -1.406344   -1.157160    0.169248
C     -1.719186    0.130404    0.923925
C     -1.921199    1.368786    0.042244
H      3.681804   -0.571360   -1.290391
H      3.334295    0.989166   -0.449445
H      2.449006    0.559210   -1.972363
H      1.925252   -1.573676    0.012250
H     -0.070364   -0.996575    1.956922
H     -1.830725   -2.070613    0.636578
H     -1.290776   -1.063451   -0.932822
H     -2.345909    0.001583    1.831924
H     -1.393442    1.298343   -0.932868
H     -3.005139    1.494834   -0.158995
H     -1.555967    2.265618    0.584299
18

C      2.917961    0.506758   -0.227653
C      1.736152   -0.401737   -0.089022
C      0.597357    0.029363    0.467783
C     -0.577719   -0.892926    0.637148
C     -1.230979   -1.268052   -0.688966
C     -1.963554   -0.359187    0.285811
C     -2.089489    1.083465   -0.209733
H      2.649516    1.384513   -0.852769
H      3.754263   -0.037891   -0.713653
H      3.249048    0.853438    0.774060
H      1.812647   -1.423699   -0.450831
H      0.534139    1.042381    0.855905
H     -0.519332   -1.729636    1.365833
H     -1.646230   -2.296721   -0.628886
H     -2.814451   -0.830704    0.822616
H     -3.083032    1.216130   -0.685875
H     -2.016854    1.775983    0.654410
H     -1.309443    1.348522   -0.956167
18

C     -1.609790    1.307106    0.170529
C     -1.838522   -0.182130   -0.063717
C     -1.514153   -0.630701   -1.481746
C     -0.608038   -1.047923   -0.329106
C      0.731222   -0.360939   -0.308015
C      1.393381   -0.199862    0.843647
C      2.729843    0.473783    0.876591
H     -2.502517    1.878826   -0.157569
H     -1.429721    1.490660    1.250018
H     -2.708645   -0.693023    0.400448
H     -2.170763   -1.443104   -1.858461
H     -1.115244    0.160685   -2.154086
H     -0.687578   -2.114168   -0.028247
H      1.170223   -0.013499   -1.239904
H      0.959771   -0.555492    1.774631
H      2.640500    1.511346    0.490912
H      3.105344    0.510007    1.920566
H      3.454689   -0.091570    0.253521
18

C      3.510807   -0.658979   -0.077513
C      2.154588   -0.300890   -0.594975
C      1.169381    0.057085    0.237200
C     -0.182328    0.438333   -0.293256
C     -1.041201   -0.749942   -0.715944
C     -1.353110   -0.004654    0.575026
C     -2.583363    0.900232    0.516703
H      3.444189   -1.534324    0.602507
H      3.958495    0.204420    0.458435
H      1.980301   -0.339006   -1.666218
H      1.353743    0.113122    1.306969
H     -0.302732    1.352470   -0.913826
H     -0.587951   -1.752751   -0.559382
H     -1.718166   -0.539525   -1.571469
H     -1.116918   -0.560055    1.508654
H     -2.702460    1.392498   -0.472939
H     -2.492850    1.686106    1.294847
H     -3.490426    0.295860    0.725193
18

C      3.310791   -0.240879   -0.086008
C      1.914547   -0.033841   -0.585036
C      0.894508    0.124588    0.267380
C     -0.497835    0.358375   -0.236620
C     -1.153856   -0.914221   -0.759994
C     -1.588754   -0.319222    0.575099
C     -2.944289    0.388815    0.568358
H      4.003473   -0.351968   -0.946294
H      3.358761   -1.160431    0.534788
H      3.629621    0.632453    0.521332
H      1.736100   -0.014965   -1.656989
H      1.076609    0.127871    1.339024
H     -0.742843    1.282417   -0.804250
H     -1.862798   -0.664190   -1.578543
H     -1.272255   -0.902507    1.466287
H     -3.750398   -0.365519    0.681233
H     -2.990866    1.089985    1.427133
H     -3.120517    0.963238   -0.366886
18

C     -3.127211   -0.714774   -0.145112
C     -1.769380   -0.195785   -0.614063
C     -1.332687    1.117392    0.020946
C     -0.675265   -0.192535    0.445740
C      0.714527   -0.380700   -0.089924
C      1.751588    0.265903    0.455967
C      3.142867    0.064254   -0.058704
H     -3.191529   -1.806991   -0.330034
H     -3.319692   -0.511444    0.930744
H     -1.460338   -0.330511   -1.673195
H     -0.727742    1.764520   -0.650539
H     -2.025074    1.543567    0.778257
H     -0.932686   -0.540083    1.469540
H      0.877577   -1.081349   -0.904765
H      1.590586    0.951567    1.283712
H      3.197816    0.359725   -1.127762
H      3.851880    0.689310    0.523369
H      3.434763   -1.002066    0.045834
18

C      2.133037    0.974248    0.800942
C      1.849592    0.445029   -0.572195
C      0.878417   -0.447215   -0.813448
C      0.007334   -1.009451    0.282755
C     -1.371906   -1.472017   -0.177602
C     -1.239843   -0.215278    0.674577
C     -1.529649    1.099553   -0.059232
H      2.916704    1.758665    0.751002
H      2.482883    0.152298    1.460261
H      2.443172    0.812549   -1.404080
H      0.729609   -0.790636   -1.833302
H      0.463363   -1.630412    1.082923
H     -1.761271   -2.352147    0.376229
H     -1.608480   -1.306991   -1.251348
H     -1.560977   -0.329433    1.731686
H     -1.328470    1.041466   -1.150176
H     -0.905548    1.906154    0.378138
H     -2.597966    1.363617    0.082880
18

C      2.668940   -0.391795   -0.251126
C      1.777555    0.664962   -0.834366
C      0.543328    0.910022   -0.374654
C     -0.081063    0.158986    0.771149
C     -0.785238   -1.131551    0.367002
C     -1.606866    0.077897    0.799200
C     -2.395022    0.762913   -0.323798
H      2.189497   -1.388914   -0.344855
H      2.868461   -0.173576    0.819104
H      3.635036   -0.408339   -0.797476
H      2.144716    1.257204   -1.666078
H      0.420311    0.139956    1.762193
H     -0.720945   -1.934342    1.131321
H     -0.779108   -1.358256   -0.721621
H     -2.058893   -0.000088    1.810830
H     -1.944829    0.607503   -1.327498
H     -2.448977    1.852264   -0.119074
H     -3.426901    0.355155   -0.340242
18

C      2.512240   -0.477844   -0.602422
C      1.748914    0.806534   -0.457244
C      0.557565    0.887474    0.156911
C     -0.119076   -0.300325    0.792340
C     -0.757155   -1.239834   -0.225035
C     -1.638704   -0.401240    0.686977
C     -2.402050    0.696413   -0.057879
H      1.932636   -1.200529   -1.213634
H      2.718967   -0.914594    0.397259
H      3.479200   -0.281077   -1.110771
H      2.189889    1.714587   -0.858096
H      0.098597    1.866021    0.260843
H      0.361393   -0.811927    1.653729
H     -0.713982   -2.285254    0.148201
H     -2.145327   -0.965365    1.499172
H     -1.910538    0.987035   -1.011732
H     -2.489770    1.589947    0.594427
H     -3.422798    0.329979   -0.293034
18

C     -1.658450    1.157350    0.174596
C     -1.478954   -0.348033    0.012346
C     -1.351629   -0.791750   -1.437995
C     -0.134463   -0.839321   -0.520805
C      0.913016    0.205926   -0.819280
C      1.813923    0.601927    0.092925
C      1.859213    0.049803    1.487955
H     -2.727668    1.422836    0.041384
H     -1.325579    1.465546    1.187174
H     -2.032970   -1.050774    0.670134
H     -1.803336   -1.784835   -1.644951
H     -1.367591    0.027499   -2.190265
H      0.174542   -1.862359   -0.217971
H      0.950833    0.649124   -1.810493
H      2.543439    1.356007   -0.187683
H      2.681875    0.533850    2.054537
H      0.900519    0.251938    2.010038
H      2.043281   -1.044734    1.458366
18

C      2.276985    0.710520    0.582633
C      2.150437   -0.630132   -0.069807
C      1.026718   -1.022701   -0.685387
C     -0.184828   -0.136519   -0.793277
C     -1.518773   -0.875422   -0.764831
C     -1.047224   -0.107434    0.462989
C     -1.772719    1.212732    0.720789
H      3.123104    1.268147    0.130652
H      2.453286    0.581434    1.670496
H      2.998320   -1.307390   -0.033120
H      1.002971   -2.002816   -1.153070
H     -0.149484    0.787004   -1.410592
H     -1.458719   -1.979633   -0.654672
H     -2.320131   -0.388421   -1.360648
H     -0.720213   -0.737004    1.319089
H     -2.048998    1.736812   -0.219875
H     -1.113895    1.877700    1.316817
H     -2.696838    1.013122    1.301826
18

C      2.535553   -0.742545   -0.651867
C      2.229646    0.196825    0.478345
C      0.991775    0.642882    0.744306
C     -0.205457    0.257985   -0.079114
C     -0.787636   -1.093076    0.318775
C     -1.512065    0.195202    0.694437
C     -2.771268    0.499578   -0.118485
H      1.989656   -1.699011   -0.511916
H      3.624658   -0.955717   -0.675400
H      2.242058   -0.283510   -1.619330
H      3.050341    0.533341    1.105140
H      0.857477    1.341770    1.565140
H     -0.245157    0.499155   -1.163729
H     -1.239756   -1.583427   -0.570102
H     -1.478332    0.443188    1.776960
H     -2.661551    0.230487   -1.191463
H     -2.994392    1.584268   -0.047838
H     -3.625549   -0.067395    0.306154
18

C     -2.997874   -0.325630    0.086551
C     -1.666434   -0.330051   -0.662057
C     -0.877253    0.968420   -0.566357
C     -0.424772   -0.259180    0.218234
C      0.787069   -0.944581   -0.354238
C      2.039155   -0.529888   -0.105712
C      2.350062    0.664569    0.748573
H     -2.955846    0.244097    1.040258
H     -3.310049   -1.369757    0.295482
H     -1.581057   -0.857707   -1.636540
H     -0.279341    1.203941   -1.473283
H     -1.325714    1.765991    0.063873
H     -0.573661   -0.209357    1.318534
H      0.645239   -1.831746   -0.964927
H      2.867063   -1.084061   -0.538214
H      1.905860    1.579019    0.302507
H      1.947747    0.515921    1.772744
H      3.449806    0.800000    0.814584
16

C      3.159296   -1.072829   -0.722896
C      1.975909   -0.265836   -0.426580
C      0.999638    0.397986   -0.182208
C     -0.191289    1.209703    0.115319
C     -0.926749    0.775871    1.378696
C     -1.555679    0.527315    0.012618
C     -1.606017   -0.941426   -0.426827
H      3.659306   -0.676929   -1.630695
H      3.861326   -1.028947    0.135052
H     -0.164601    2.306399   -0.055690
H     -0.517449   -0.119315    1.896765
H     -1.390129    1.613466    1.941527
H     -2.400557    1.200415   -0.245964
H     -2.599258   -1.361688   -0.165826
H     -1.476953   -0.997244   -1.527628
H     -0.826795   -1.566940    0.058625
16

C      2.941143   -0.646151    0.579770
C      1.725840   -0.129265   -0.048939
C      0.722839    0.295948   -0.565349
C     -0.502148    0.814532   -1.196805
C     -1.316556    1.751274   -0.306122
C     -1.840245    0.353910   -0.629359
C     -1.840661   -0.644033    0.537018
H      3.718129   -0.809142   -0.195191
H      2.715509   -1.607616    1.085278
H      3.311353    0.086084    1.326506
H     -0.489649    1.095192   -2.270328
H     -0.901351    1.815581    0.723970
H     -2.675030    0.332222   -1.360852
H     -1.067046   -0.422299    1.302593
H     -2.833871   -0.620031    1.031224
H     -1.668256   -1.666206    0.140875
16

C     -1.705936    0.193621    1.249294
C     -1.758770   -0.773455    0.060885
C     -1.478090   -0.149223   -1.300929
C     -0.455069   -1.089213   -0.672190
C      0.766287   -0.408485   -0.213248
C      1.767373    0.148571    0.162357
C      2.980395    0.826218    0.619332
H     -2.735086    0.517293    1.508728
H     -1.083359    1.093531    1.057438
H     -2.507273   -1.593930    0.061119
H     -1.214084    0.931328   -1.295966
H     -2.058266   -0.603390   -2.131715
H     -0.379146   -2.085818   -1.155686
H      3.502036    0.189352    1.363051
H      2.708609    1.794553    1.087664
H      3.650380    1.009046   -0.245845
16

C      3.720302    1.076606    0.212959
C      2.410621    0.425667    0.186173
C      1.330885   -0.110094    0.164302
C      0.016071   -0.762726    0.136915
C     -0.921053   -0.307402    1.249341
C     -1.137836    0.179033   -0.178261
C     -2.319922   -0.461825   -0.904998
H      4.281420    0.817036   -0.708258
H      3.585591    2.176547    0.266285
H     -0.074269   -1.826748   -0.169521
H     -1.621854   -1.093773    1.602962
H     -0.519093    0.470367    1.934644
H     -0.893025    1.249424   -0.354438
H     -3.248523    0.087558   -0.645351
H     -2.156549   -0.386736   -2.000005
H     -2.452765   -1.532935   -0.638464
16

C      3.419823   -0.407870    0.613937
C      2.052324    0.026903    0.329793
C      0.925112    0.384417    0.095249
C     -0.448521    0.820185   -0.189908
C     -0.997156    0.338607   -1.530747
C     -1.461477   -0.309655   -0.234104
C     -2.882012    0.077670    0.166645
H      3.980264   -0.511651   -0.337894
H      3.395785   -1.385833    1.137260
H      3.920815    0.343875    1.257938
H     -0.799984    1.819018    0.144648
H     -0.287215   -0.338695   -2.054720
H     -1.094861   -1.345522   -0.060502
H     -2.982711    0.002540    1.269240
H     -3.141682    1.112427   -0.147430
H     -3.598503   -0.626416   -0.305118
16

C     -2.933187    0.366924    0.316937
C     -1.537039   -0.234031    0.333154
C     -1.179024   -0.997007   -0.933988
C     -0.586578    0.382891   -0.680378
C      0.823019    0.358435   -0.270839
C      1.980544    0.338728    0.065570
C      3.384859    0.313885    0.474344
H     -3.669779   -0.390865    0.655722
H     -2.968787    1.244739    0.994900
H     -1.102587   -0.635753    1.274704
H     -1.964394   -1.015379   -1.720222
H     -0.496413   -1.858035   -0.764176
H     -0.970538    1.202810   -1.324673
H      3.552078   -0.532559    1.171789
H      3.639337    1.266985    0.981974
H      4.028489    0.188233   -0.420530
20

C     -1.076866    1.129243    1.032252
C     -1.050176   -0.283198    0.430026
C     -2.122234   -0.425680   -0.655777
C      0.340671   -0.711306   -0.109578
C      1.502871   -0.495077    0.861077
C      2.153232    0.457453   -0.134822
C      1.005361    0.235189   -1.111694
H     -2.008578    1.283492    1.617027
H     -1.006364    1.916430    0.253559
H     -1.308706   -0.991036    1.247993
H     -3.124494   -0.193480   -0.236357
H     -1.920735    0.264735   -1.502312
H     -2.141470   -1.467686   -1.040464
H      0.328484   -1.758789   -0.487722
H      2.103776   -1.418692    1.011393
H      1.227757    0.007091    1.813806
H      2.193551    1.502942    0.241885
H      3.123994    0.076450   -0.520728
H      0.443386    1.166795   -1.329033
H      1.336540   -0.294876   -2.031436
20

C     -1.941136   -0.040373    1.050674
C     -0.969254   -0.493373   -0.045241
C     -1.109593    0.422484   -1.278614
C      0.468803   -0.616041    0.538110
C      1.520494   -1.184926   -0.412848
C      2.313791    0.110050   -0.296464
C      1.280003    0.672803    0.669230
H     -2.979434   -0.009150    0.656300
H     -1.919448   -0.752550    1.903098
H     -1.667140    0.970592    1.421690
H     -1.279773   -1.515349   -0.356631
H     -1.031233    1.494370   -1.003089
H     -0.350875    0.194962   -2.052605
H     -2.109243    0.270082   -1.738712
H      0.478978   -1.198135    1.486637
H      1.148861   -1.340491   -1.446971
H      2.356644    0.673771   -1.254237
H      3.303166   -0.052744    0.182218
H      0.792603    1.590585    0.284289
H      1.693784    0.803433    1.693165
20

C     -1.661018    0.123406   -1.226501
C     -0.798419    0.417391    0.009180
C     -1.616814    0.152867    1.281059
C      0.483498   -0.451039   -0.003201
C      1.523029   -0.063582    1.048920
C      2.529131    0.251180   -0.047598
C      1.485101   -0.088970   -1.100201
H     -1.955361   -0.947962   -1.252749
H     -2.580489    0.746785   -1.209572
H     -1.107455    0.363522   -2.157996
H     -0.521156    1.495464   -0.008377
H     -2.536568    0.776067    1.281917
H     -1.030852    0.414551    2.186571
H     -1.909610   -0.917466    1.342816
H      0.266019   -1.543255    0.013547
H      1.832505   -0.922776    1.683605
H      1.270785    0.851670    1.626563
H      3.343066   -0.507305   -0.053004
H      1.212246    0.812490   -1.690032
H      1.772361   -0.963037   -1.724947
18

C     -2.015560    0.781202    1.048568
C     -1.055566    0.178004    0.332182
C     -1.464326   -0.741664   -0.793755
C      0.406093    0.436261    0.673962
C      1.246039   -0.822237    0.882675
C      2.117625   -0.425278   -0.302208
C      1.278318    0.826907   -0.515958
H     -1.769640    1.450422    1.867461
H     -3.065103    0.613145    0.824728
H     -2.082329   -1.572950   -0.393252
H     -0.586084   -1.180993   -1.308591
H     -2.057899   -0.176143   -1.542879
H      0.546968    1.140173    1.524803
H      0.686881   -1.758482    0.664871
H      2.046008   -1.141540   -1.149936
H      3.158088   -0.193302    0.011208
H      1.856932    1.757778   -0.327713
H      0.753555    0.828697   -1.496165
18

C     -1.784903    0.005632    1.477454
C     -0.982904    0.080778    0.405183
C     -1.593235    0.432713   -0.930642
C      0.507271   -0.188941    0.565576
C      1.075862   -1.202881   -0.423292
C      1.981410   -0.126259   -1.009045
C      1.411692    0.888899   -0.025621
H     -1.391018   -0.244036    2.457982
H     -2.851043    0.193636    1.388715
H     -2.357752   -0.324749   -1.204736
H     -0.832590    0.464055   -1.737075
H     -2.076127    1.431015   -0.870862
H      0.804589   -0.435354    1.610660
H      1.648869   -2.012610    0.079953
H      0.346274   -1.581323   -1.170890
H      3.045883   -0.342829   -0.768828
H      0.874923    1.711501   -0.544884
H      2.172799    1.250753    0.700353
20

C     -1.280470    1.632875    0.491142
C     -0.926414    0.161138    0.288599
C     -2.206166   -0.644971    0.052845
C      0.002836    0.024413   -0.935776
C      0.842907   -1.250015   -0.969524
C      1.523580    0.098961   -0.759052
C      2.111665    0.324998    0.639127
H     -1.938426    1.758033    1.377578
H     -0.365730    2.244247    0.637169
H     -0.456203   -0.219846    1.218723
H     -2.881479   -0.559233    0.931035
H     -2.742007   -0.277490   -0.849180
H     -1.960930   -1.719129   -0.089051
H     -0.374130    0.339923   -1.932972
H      0.977421   -1.671740   -1.987840
H      0.754323   -1.904906   -0.076016
H      2.074315    0.489314   -1.641228
H      3.217281    0.257851    0.573149
H      1.777507   -0.426202    1.384381
H      1.850121    1.341779    0.995984
20

C     -1.701144   -1.142218    0.117437
C     -1.171613    0.219663   -0.338261
C     -1.359967    1.355268    0.666758
C      0.115509    0.275720   -1.198201
C      1.027188   -0.952906   -1.227609
C      1.497433    0.319240   -0.533819
C      1.640881    0.185607    0.984535
H     -1.100275   -1.543609    0.957943
H     -2.753169   -1.037221    0.455774
H     -1.684292   -1.859373   -0.729632
H     -2.444922    1.533445    0.817873
H     -0.902670    2.291738    0.283571
H     -0.910098    1.097107    1.646541
H      0.060009    0.828338   -2.159610
H      1.520674   -1.130696   -2.206327
H      0.789239   -1.794973   -0.545535
H      2.280850    0.873933   -1.092994
H      0.897787   -0.499524    1.437097
H      1.545941    1.188284    1.449716
H      2.652637   -0.207824    1.214745
20

C     -1.419319    0.484905   -1.165194
C     -0.785339    0.170505    0.193316
C     -1.870016   -0.230686    1.198504
C      0.231079   -0.983539    0.038620
C      1.299396   -1.073118    1.129270
C      1.691978   -0.684307   -0.295608
C      2.145998    0.768401   -0.492132
H     -1.954188   -0.403945   -1.564334
H     -0.639606    0.786073   -1.895179
H     -2.141404    1.323407   -1.066248
H     -0.309306    1.097381    0.574613
H     -2.606764    0.592437    1.317387
H     -1.414966   -0.431889    2.191715
H     -2.404236   -1.144191    0.858427
H     -0.133772   -1.976453   -0.301220
H      1.262342   -0.199367    1.814533
H      2.204946   -1.485918   -0.867372
H      1.897080    1.431883    0.361338
H      3.249195    0.780863   -0.610676
H      1.696902    1.177558   -1.419758
20

C      2.106283   -0.918533   -0.511263
C      1.656720   -0.056473    0.661932
C      1.285349    1.365669    0.263087
C      0.195182    0.393861    0.705035
C     -0.764133   -0.060565   -0.416729
C     -1.877951    0.976071   -0.593262
C     -1.362693   -1.425511   -0.064245
H      3.168071   -0.701112   -0.749780
H      2.001620   -1.990963   -0.247163
H      2.176821   -0.138834    1.639835
H      1.542715    2.131573    1.024765
H      1.324343    1.586603   -0.826116
H     -0.209795    0.592204    1.721024
H     -0.237297   -0.154219   -1.391898
H     -2.569331    0.662149   -1.404306
H     -2.458050    1.095055    0.347363
H     -1.442837    1.959582   -0.871717
H     -0.556963   -2.181586    0.045028
H     -1.931466   -1.370780    0.889132
H     -2.046587   -1.764192   -0.871630
20

C     -1.498938    1.476319   -0.142715
C     -1.144371    0.181960    0.604241
C     -2.231399   -0.872675    0.372829
C      0.240786   -0.425534    0.258513
C      0.570391   -0.538479   -1.229578
C      1.325432    0.459888   -0.356909
C      2.763608    0.054441   -0.033784
H     -2.558893    1.758259    0.034395
H     -0.867815    2.315317    0.217825
H     -1.135271    0.417708    1.690713
H     -3.215652   -0.497197    0.726043
H     -2.309492   -1.123048   -0.707017
H     -1.995400   -1.798756    0.939785
H      0.589069   -1.295484    0.857164
H      1.126884   -1.460815   -1.502163
H     -0.156445   -0.072090   -1.927542
H      1.109269    1.520684   -0.593697
H      3.421685    0.337119   -0.881574
H      2.868198   -1.036979    0.149558
H      3.098355    0.599361    0.873008
20

C     -1.463719   -0.730239   -1.236886
C     -1.045021   -0.472729    0.213332
C     -2.176525    0.215821    0.982032
C      0.215713    0.406365    0.241929
C      1.093969    0.185697    1.469575
C      1.533043   -0.342104    0.106344
C      2.661830    0.437540   -0.569436
H     -1.686291    0.226255   -1.757492
H     -2.368168   -1.374699   -1.266228
H     -0.648828   -1.252820   -1.781976
H     -0.851275   -1.457238    0.697476
H     -2.422548    1.198212    0.523909
H     -1.875006    0.379126    2.038752
H     -3.086714   -0.421211    0.976504
H      0.176970    1.452995   -0.133466
H      1.611150    1.132137    1.737197
H      1.480272   -1.446075   -0.004858
H      3.636612    0.083742   -0.174308
H      2.630231    0.245772   -1.661974
H      2.584305    1.533454   -0.400425
20

C      2.830456   -0.403332    0.826856
C      1.487935    0.313107    0.683407
C      1.264963    0.986858   -0.662979
C      0.512254   -0.303291   -0.319178
C     -0.967492   -0.271155    0.155037
C     -1.619003    1.121660    0.184363
C     -1.798771   -1.206173   -0.730245
H      3.170286   -0.881829   -0.117181
H      2.757846   -1.172024    1.623823
H      1.063306    0.856825    1.554115
H      0.728555    1.952648   -0.586683
H      2.082632    0.850824   -1.402660
H      0.895793   -1.232412   -0.795920
H     -1.003138   -0.683010    1.188100
H     -2.671903    1.042498    0.530144
H     -1.089679    1.787981    0.896824
H     -1.617042    1.578578   -0.828432
H     -1.386667   -2.237487   -0.693773
H     -2.849933   -1.246923   -0.372359
H     -1.790398   -0.853341   -1.784167
18

C      1.131697   -1.975002   -0.369711
C      0.999780   -0.651149   -0.233908
C      1.914441    0.101005    0.692131
C      0.022208    0.098255   -1.107969
C     -1.402886   -0.453886   -1.143098
C     -1.118977    0.854098   -0.417903
C     -1.271567    0.768146    1.105610
H      1.857354   -2.535447    0.212131
H      1.736988    1.194632    0.617970
H      2.973542   -0.099482    0.424344
H      1.735292   -0.219754    1.739991
H      0.378382    0.534914   -2.064922
H     -1.911014   -0.326494   -2.122164
H     -1.599075   -1.335799   -0.495169
H     -1.486891    1.758871   -0.946787
H     -2.329999    0.966875    1.373245
H     -0.638521    1.545546    1.580744
H     -0.990752   -0.225331    1.515475
18

C     -1.583776    1.227022    0.619642
C     -1.163708   -0.080078    0.018261
C     -1.863671   -0.603063   -0.997849
C     -0.041666   -0.859664    0.661894
C      1.065299   -1.322645   -0.285365
C      1.348399   -0.216190    0.720732
C      1.571579    1.162291    0.087799
H     -1.497024    2.041707   -0.129854
H     -2.627615    1.164415    0.993466
H     -1.609715   -1.576444   -1.406533
H     -2.701501   -0.064260   -1.430474
H     -0.281290   -1.578245    1.474029
H      1.508752   -2.303984   -0.014584
H      0.963143   -1.001738   -1.345003
H      1.985500   -0.526620    1.575972
H      0.989533    1.310724   -0.846641
H      1.289138    1.948923    0.817586
H      2.648625    1.277849   -0.153068
18

C     -1.493812    0.609998    1.094427
C     -1.026347   -0.144350    0.090629
C     -1.768645   -0.180031   -1.218332
C      0.173862   -1.032201    0.323254
C      1.174617   -1.079690   -0.827295
C      1.535217   -0.349561    0.456558
C      1.633841    1.166046    0.264024
H     -2.376136    1.229025    0.961268
H     -0.998088    0.617930    2.060662
H     -2.830535   -0.455298   -1.044013
H     -1.327712   -0.927545   -1.910195
H     -1.725046    0.819654   -1.699692
H      0.052154   -1.975638    0.897075
H      1.671773   -2.072755   -0.850826
H      2.285989   -0.869310    1.089652
H      0.984635    1.536973   -0.558549
H      1.350227    1.675001    1.208329
H      2.684005    1.431752    0.023034
18

C      1.472675    1.295343    0.407566
C      1.574992   -0.166669   -0.013402
C      1.046928   -0.409608   -1.417781
C      0.277970   -0.955591   -0.216350
C     -1.026383   -0.254544    0.097485
C     -1.971951   -0.129553   -0.844861
C     -1.324034    0.179532    1.506445
H      1.549330    1.371338    1.511792
H      2.296295    1.876860   -0.056364
H      2.482723   -0.754505    0.239696
H      1.607657   -1.182704   -1.984299
H      0.599770    0.476054   -1.920872
H      0.351674   -2.054591   -0.075391
H     -1.804435   -0.490479   -1.855118
H     -2.928072    0.331450   -0.615021
H     -1.468636    1.280037    1.537635
H     -0.490271   -0.091474    2.187876
H     -2.246233   -0.320895    1.870974
18

C     -1.918284    1.090987    0.662449
C     -1.353221   -0.223853    0.216676
C     -2.169674   -1.194165   -0.214682
C      0.125418   -0.478143    0.347371
C      0.841486   -0.702361   -0.983770
C      1.032201    0.605020   -0.229751
C      2.384452    0.757357    0.465653
H     -2.418716    1.602120   -0.186810
H     -2.637575    0.941756    1.495305
H     -1.775020   -2.163079   -0.505930
H     -3.241121   -1.030018   -0.281627
H      0.507651   -1.099302    1.185865
H      1.689495   -1.418304   -0.930268
H      0.212938   -0.605633   -1.895358
H      0.548210    1.488745   -0.698932
H      3.128970    1.137433   -0.264278
H      2.287012    1.493230    1.290483
H      2.755778   -0.201791    0.887616
18

C     -1.673292    0.922326    0.963811
C     -1.255414   -0.070638    0.166794
C     -2.250674   -0.810362   -0.685131
C      0.187214   -0.504464    0.203159
C      0.834462   -0.620187   -1.174238
C      1.178151    0.552424   -0.264811
C      2.558994    0.493129    0.389829
H     -2.716033    1.225760    0.974173
H     -0.977264    1.443023    1.614939
H     -1.767960   -1.655830   -1.218896
H     -3.063392   -1.219949   -0.048384
H     -2.687977   -0.119019   -1.435999
H      0.529780   -1.235157    0.967522
H      1.618003   -1.407947   -1.155330
H      0.765006    1.528170   -0.599178
H      3.318534    0.870822   -0.325710
H      2.561641    1.144691    1.288044
H      2.840221   -0.536792    0.699417
18

C      2.488845    0.916390    0.632598
C      1.322706    0.358845   -0.181107
C      1.126737   -1.144956   -0.073202
C      0.165017   -0.197039    0.643433
C     -1.196974   -0.088120    0.002326
C     -1.993169   -1.164092   -0.064291
C     -1.706818    1.245170   -0.472328
H      3.428706    0.824717    0.049745
H      2.611086    0.411687    1.615516
H      1.087133    0.789867   -1.177944
H      0.743829   -1.613147   -1.005617
H      1.831643   -1.675583    0.602169
H      0.255706   -0.196596    1.750957
H     -2.988522   -1.093669   -0.492995
H     -1.658955   -2.127349    0.309624
H     -1.890249    1.207931   -1.566808
H     -0.971826    2.050217   -0.261349
H     -2.654893    1.495728    0.049285
22

C      2.415189   -0.864217   -0.506749
C      1.402392    0.249353   -0.765526
C      0.044127   -0.003463   -0.072140
C     -0.833291   -0.890608   -0.988445
C     -1.949123   -1.606957   -0.224598
C     -0.668547    1.337676    0.237857
C     -0.097082    2.030773    1.476648
H      2.019462   -1.845656   -0.838627
H      2.661159   -0.914014    0.575216
H      3.344966   -0.651257   -1.074025
H      1.858316    1.217405   -0.470448
H      0.220367   -0.542033    0.886995
H     -1.276969   -0.278737   -1.804459
H     -0.214366   -1.676242   -1.472050
H     -1.521746   -2.228832    0.590474
H     -2.502017   -2.273354   -0.919832
H     -2.671578   -0.884790    0.206169
H     -0.595615    2.021830   -0.636121
H     -1.748352    1.169734    0.429275
H     -0.195624    1.372415    2.365823
H      0.970726    2.294054    1.335202
H     -0.662395    2.966923    1.669362
20

C      1.061651   -2.151333    0.339916
C      0.546313   -1.125707    1.028194
C      0.065940    0.150277    0.368819
C     -1.108049   -0.114707   -0.592612
C     -2.374469   -0.574821    0.123333
C      1.225033    0.862689   -0.356859
C      0.847602    2.276797   -0.799189
H      1.390198   -3.043474    0.862871
H      1.161012   -2.112996   -0.739888
H      0.468262   -1.211100    2.108172
H     -0.292339    0.825664    1.177567
H     -0.830674   -0.830989   -1.395845
H     -2.211073   -1.560405    0.607903
H     -3.196540   -0.672452   -0.615610
H     -2.674111    0.170605    0.889589
H      2.098041    0.937440    0.328497
H      1.540819    0.278157   -1.248465
H      0.015083    2.247838   -1.533387
H      0.543853    2.888193    0.077016
H      1.723445    2.760326   -1.280930
20

C      2.460073   -0.733848   -0.882641
C      1.227057   -1.200173   -0.113479
C      0.048243   -0.214782   -0.247395
C     -1.210395   -0.895987    0.243596
C     -2.252836   -1.125765   -0.560678
C      0.294464    1.082291    0.555845
C     -0.807928    2.119940    0.336461
H      3.196024   -1.562358   -0.954076
H      2.946735    0.121820   -0.371075
H      0.927004   -2.185064   -0.535304
H      1.489672   -1.354724    0.956298
H     -0.059337    0.050750   -1.324375
H     -1.267586   -1.212701    1.281486
H     -3.137993   -1.618817   -0.172358
H     -2.235702   -0.826348   -1.603991
H      0.369147    0.852638    1.641665
H      1.252281    1.546191    0.241198
H     -1.779835    1.748806    0.724277
H     -0.550465    3.054327    0.878380
H     -0.908623    2.353803   -0.744742
18

C     -0.565497    2.879665    0.028937
C     -0.284732    1.713820    0.154599
C      0.057378    0.289510    0.309094
C     -0.886643   -0.577951   -0.539441
C     -2.306228   -0.637245    0.017662
C      1.522673    0.064905   -0.103090
C      2.000491   -1.352734    0.212966
H     -0.812098    3.902794   -0.081533
H     -0.055718    0.022790    1.382837
H     -0.896563   -0.248166   -1.601936
H     -2.913882   -1.327148   -0.603794
H     -2.292788   -1.019186    1.060051
H     -2.775040    0.369117   -0.002976
H      1.649662    0.259216   -1.191345
H      2.175776    0.777505    0.448339
H      1.421750   -2.100154   -0.369600
H      3.072748   -1.451252   -0.058213
H      1.888714   -1.565485    1.297455
18

C      0.488339    2.478134   -0.410026
C      0.352269    1.285922   -0.291915
C      0.185720   -0.173371   -0.148465
C      1.319352   -0.757607    0.718397
C      2.686423   -0.642792    0.046898
C     -1.186709   -0.496097    0.476827
C     -2.350690   -0.119499   -0.441731
H      0.607729    3.524445   -0.513555
H      0.235107   -0.635833   -1.159007
H      1.354472   -0.245664    1.705109
H      1.128556   -1.836693    0.903778
H      2.689439   -1.159404   -0.936385
H      2.986069    0.419191   -0.076922
H     -1.299730    0.033889    1.448647
H     -1.253748   -1.587877    0.677480
H     -2.258224   -0.643009   -1.417013
H     -3.308684   -0.420823    0.032021
H     -2.375688    0.977086   -0.614138
18

C     -0.921098    2.426312   -0.533865
C     -0.685297    1.664537    0.539457
C     -0.131791    0.260521    0.440532
C     -1.065992   -0.619524   -0.360936
C     -2.243717   -1.015368    0.131314
C      1.291423    0.278489   -0.156802
C      1.995582   -1.071444   -0.014024
H     -0.724098    2.068558   -1.539578
H     -0.906668    2.072495    1.520410
H     -0.062086   -0.147223    1.474178
H     -0.784832   -0.938955   -1.360804
H     -2.562372   -0.715470    1.125089
H     -2.897476   -1.644669   -0.463702
H      1.257971    0.559069   -1.232430
H      1.903020    1.041489    0.373600
H      2.063183   -1.360774    1.056249
H      3.024252   -0.997778   -0.425561
H      1.449998   -1.860265   -0.573128
18

C      0.658976    2.176024   -1.460429
C      0.742451    0.857535   -1.268990
C     -0.331716    0.069617   -0.563821
C     -0.100722   -1.406700   -0.782116
C     -1.067498   -2.304451   -0.568007
C     -0.405837    0.416007    0.941031
C      0.882867    0.102861    1.707503
H      1.461244    2.694796   -1.972924
H     -0.202417    2.738988   -1.114512
H     -1.305441    0.337097   -1.033039
H      0.871960   -1.759332   -1.116284
H     -0.873878   -3.359915   -0.729178
H     -2.053346   -1.995647   -0.233847
H     -1.243441   -0.146736    1.407526
H     -0.638352    1.496374    1.060728
H      1.734366    0.685898    1.298169
H      0.752440    0.378310    2.775181
H      1.118345   -0.980726    1.653009
16

C     -0.717230    1.424059   -2.238000
C     -0.281213    0.729019   -1.354513
C      0.249328   -0.120418   -0.277174
C      1.650765    0.300096    0.048745
C      2.666007   -0.550966   -0.103140
C     -0.640413   -0.071497    0.972159
C     -1.972661   -0.778858    0.735897
H     -1.100140    2.034174   -3.013233
H      1.842154    1.304179    0.417976
H      3.676927   -0.239138    0.138284
H      2.497718   -1.560184   -0.467234
H     -0.123425   -0.587116    1.811206
H     -0.825079    0.982333    1.277975
H     -2.559967   -0.254590   -0.047424
H     -2.563814   -0.780614    1.675867
H     -1.798957   -1.830479    0.422609
16

C     -1.408185    2.587144    0.599846
C     -1.046836    1.533165    0.138830
C     -0.606350    0.246362   -0.423247
C      0.550958    0.462636   -1.367677
C      1.722010    0.990458   -0.996565
C     -0.268044   -0.743102    0.709077
C      0.032933   -2.146126    0.181321
H     -1.725015    3.512169    1.004554
H     -1.453063   -0.164007   -1.013834
H      1.898647    1.302541    0.027904
H      2.509631    1.114812   -1.731096
H      0.602248   -0.379551    1.298109
H     -1.135427   -0.816355    1.402100
H     -0.828301   -2.531655   -0.404741
H      0.215399   -2.831924    1.035346
H      0.939395   -2.136567   -0.459926
16

C     -2.085865    0.988693    1.347304
C     -1.485807    1.286196    0.189495
C     -0.398683    0.428966   -0.414647
C     -0.919547   -0.919027   -0.703190
C     -1.344654   -2.022326   -0.939597
C      0.838411    0.368363    0.503551
C      2.046233   -0.260839   -0.192182
H     -1.819791    0.102854    1.915409
H     -1.795964    2.184307   -0.335015
H     -0.103367    0.893283   -1.380718
H     -1.717568   -2.990726   -1.146773
H      1.117766    1.400369    0.810585
H      0.609608   -0.210391    1.425481
H      2.918810   -0.245439    0.494366
H      1.833915   -1.315778   -0.466195
H      2.306502    0.311496   -1.107874
16

C     -1.925473    2.168042    0.439365
C     -0.944922    1.537464    0.131162
C      0.251215    0.769368   -0.244926
C     -0.103006   -0.281987   -1.311343
C     -1.042352   -1.386676   -0.823046
C      0.889465    0.154032    0.977917
C      2.111464   -0.385196    0.930384
H     -2.786189    2.721042    0.709894
H      0.969258    1.488593   -0.694801
H      0.819629   -0.731512   -1.738103
H     -1.988259   -0.953464   -0.436871
H     -0.557148   -1.988490   -0.026186
H     -1.286518   -2.057218   -1.672833
H      0.361429    0.160841    1.928489
H      2.551106   -0.813685    1.825142
H      2.680301   -0.401154    0.005754
16

C     -0.259655    3.009959    0.265359
C     -0.094293    1.842204    0.014194
C      0.107408    0.419389   -0.293325
C      0.908098   -0.206744    0.821925
C      2.099075   -0.773581    0.606116
C     -1.253856   -0.276528   -0.453891
C     -1.096692   -1.702156   -0.973945
H     -0.404872    4.034720    0.485910
H      0.657553    0.360692   -1.259066
H      0.502859   -0.203563    1.830503
H      2.645189   -1.217609    1.431980
H      2.537107   -0.802194   -0.386797
H     -1.801738   -0.293305    0.514578
H     -1.870967    0.286479   -1.188522
H     -0.580643   -2.339225   -0.224907
H     -2.094574   -2.138537   -1.190111
20

C      2.361597   -0.333083    0.406032
C      1.001236   -0.038326    1.025067
C     -0.082715    0.021546   -0.021101
C     -0.885582   -1.038834   -0.243474
C     -0.791169   -2.313071    0.545270
C     -0.227838    1.267775   -0.864621
C     -1.502279    2.029787   -0.511081
H      2.327704   -1.291103   -0.154389
H      2.662388    0.485907   -0.281002
H      3.118928   -0.420492    1.212351
H      1.033674    0.906912    1.608176
H     -1.642364   -0.982586   -1.021509
H     -1.561528   -3.029766    0.191543
H     -0.964236   -2.107103    1.622598
H      0.210388   -2.772496    0.409653
H     -0.240821    0.994125   -1.942052
H      0.639781    1.943246   -0.702360
H     -2.399701    1.410951   -0.723310
H     -1.561531    2.956534   -1.119797
H     -1.495932    2.310075    0.564005
20

C      1.853825    0.658382   -1.132484
C      1.570306    0.185754    0.286482
C      0.127863   -0.292749    0.491017
C     -1.033548    0.726780    0.483333
C     -1.631115    0.921967   -0.909943
C      0.028295   -1.374003    1.565647
C     -0.177996   -1.734477    0.102670
H      1.391999    1.651964   -1.306500
H      1.469132   -0.074960   -1.872390
H      2.950741    0.755711   -1.267627
H      1.829805    0.977396    1.021520
H     -0.659799    1.704901    0.854921
H     -1.852825    0.411681    1.165278
H     -2.442076    1.678763   -0.859133
H     -0.868116    1.281054   -1.627588
H     -2.065620   -0.026917   -1.286972
H      0.987365   -1.762131    1.972302
H     -0.910856   -1.425267    2.156704
H     -1.235741   -1.963791   -0.145469
H      0.668360   -2.300059   -0.342674
20

C      1.561219   -1.105515    1.006131
C      1.542539    0.109345    0.084786
C      0.111144    0.588830   -0.230947
C     -0.868660   -0.356162   -0.969526
C     -1.753056   -1.159385   -0.014159
C     -0.462425    1.663080    0.689799
C      0.054806    2.044085   -0.690308
H      1.167241   -1.998009    0.476970
H      2.606622   -1.322021    1.311652
H      0.959003   -0.909417    1.918702
H      2.129847    0.918106    0.574212
H      2.056395   -0.148596   -0.866067
H     -0.283243   -1.063818   -1.594848
H     -1.533387    0.206163   -1.660350
H     -2.365687   -1.878002   -0.598297
H     -1.146832   -1.732785    0.713937
H     -2.443495   -0.490356    0.539201
H     -1.572500    1.669367    0.680814
H      0.999505    2.625272   -0.635728
H     -0.759038    2.339816   -1.386882
22

C     -3.148404    0.931305   -0.057067
C     -2.578184   -0.396376    0.435501
C     -1.336616   -0.839086   -0.346353
C     -0.097113   -0.028724    0.052630
C      1.162420   -0.580562   -0.632003
C      2.405772    0.281976   -0.365751
C      2.894824    0.184332    1.079023
H     -4.079310    1.158393    0.503001
H     -2.428658    1.755932    0.121151
H     -3.389337    0.873553   -1.139807
H     -3.363560   -1.178788    0.354371
H     -1.152105   -1.911196   -0.116288
H     -1.520099   -0.751886   -1.439896
H     -0.234682    1.033106   -0.243548
H      0.024474   -0.078791    1.155917
H      1.350439   -1.624191   -0.296440
H      0.991794   -0.605583   -1.730764
H      2.196170    1.344362   -0.617335
H      3.223343   -0.065845   -1.033806
H      2.162845    0.645060    1.774066
H      3.059268   -0.876751    1.363304
H      3.856723    0.729761    1.180095
22

C     -2.738099    0.645197    0.175690
C     -2.242330   -0.730964   -0.260461
C     -1.184237   -0.647113   -1.369364
C      0.135766    0.028180   -0.967611
C      0.903524   -0.764965    0.103145
C      2.336184   -0.247657    0.303683
C      2.378143    1.134196    0.955535
H     -3.617076    0.526409    0.843759
H     -1.949177    1.185200    0.739336
H     -3.042366    1.245739   -0.707986
H     -1.854603   -1.291246    0.615763
H     -3.109343   -1.299880   -0.659301
H     -0.987020   -1.658822   -1.785873
H      0.760398    0.105121   -1.883367
H     -0.062412    1.061478   -0.617549
H      0.361438   -0.723846    1.072122
H      0.963699   -1.830679   -0.208547
H      2.872377   -0.216977   -0.669656
H      2.877905   -0.960500    0.962525
H      1.806257    1.132529    1.907771
H      3.431807    1.405759    1.176816
H      1.959165    1.902839    0.273571
20

C      3.585208   -0.835718    0.237079
C      2.375419   -0.370825    0.551738
C      1.792176    0.799387   -0.189979
C      0.337759    1.076969    0.198501
C     -0.604908    0.015188   -0.380741
C     -2.064921    0.330358   -0.035958
C     -3.006972   -0.724438   -0.609040
H      4.170816   -0.377212   -0.554304
H      3.997850   -1.683887    0.773714
H      1.813552   -0.856054    1.345282
H      2.410559    1.702063    0.005671
H      0.054192    2.071179   -0.210390
H      0.239912    1.121121    1.305855
H     -0.340710   -0.983571    0.030431
H     -0.485410   -0.016078   -1.486425
H     -2.190492    0.362644    1.068387
H     -2.342770    1.323682   -0.451247
H     -2.767596   -1.724698   -0.189191
H     -4.054924   -0.469969   -0.344443
H     -2.918742   -0.760140   -1.715848
20

C      1.396826   -3.036406    1.020312
C      1.419227   -2.474525   -0.192113
C      1.024110   -1.041463   -0.406787
C     -0.487676   -0.870539   -0.231579
C     -1.005078    0.493433   -0.701899
C     -0.583104    1.631246    0.237536
C     -1.198735    2.958363   -0.196213
H      1.078844   -2.472610    1.892122
H      1.702876   -4.069925    1.145418
H      1.763180   -3.059794   -1.039951
H      1.576242   -0.392860    0.306622
H      1.310990   -0.749897   -1.439895
H     -0.799135   -1.072174    0.816723
H     -2.114561    0.440044   -0.735452
H     -0.644952    0.696655   -1.733938
H     -0.912434    1.404753    1.275022
H      0.522558    1.737348    0.232950
H     -2.307604    2.896681   -0.170227
H     -0.872130    3.763423    0.495330
H     -0.869446    3.218248   -1.224888
20

C      3.368569   -0.022158   -0.110839
C      2.581897   -0.090423    0.967264
C      1.111588    0.218083    0.894895
C      0.353069   -0.875574    0.132808
C     -1.162303   -0.657737    0.198123
C     -1.647558    0.432409   -0.762666
C     -3.152700    0.631416   -0.628601
H      4.428607   -0.237112   -0.023863
H      2.964822    0.250544   -1.081193
H      3.020692   -0.346206    1.927243
H      0.713154    0.284074    1.930706
H      0.971403    1.206452    0.407880
H      0.580153   -1.858039    0.602103
H      0.688470   -0.918677   -0.926621
H     -1.679172   -1.614187   -0.036562
H     -1.144943    1.395295   -0.534711
H     -1.409546    0.145462   -1.809997
H     -3.691242   -0.304483   -0.890024
H     -3.410340    0.924997    0.411513
H     -3.484618    1.435865   -1.318366
20

C      3.115859   -0.900986    0.776824
C      2.513654   -0.798811   -0.411733
C      1.480307    0.258693   -0.687671
C      0.174062   -0.030725    0.062290
C     -0.891550    1.021979   -0.266065
C     -2.157354    0.827062    0.575573
C     -3.012130   -0.345136    0.100347
H      3.867983   -1.665870    0.940279
H      2.868233   -0.224566    1.589258
H      2.799891   -1.477422   -1.209907
H      1.880852    1.254093   -0.394957
H      1.277610    0.276891   -1.780609
H      0.365106   -0.027089    1.158039
H     -0.191758   -1.038488   -0.230207
H     -1.141927    0.993696   -1.349409
H     -0.480956    2.029704   -0.037452
H     -2.768102    1.755257    0.543719
H     -2.469097   -1.303177    0.230961
H     -3.940467   -0.388854    0.707069
H     -3.290218   -0.216253   -0.967253
18

C      3.506508   -0.983848    0.065181
C      2.828303    0.004462    0.193579
C      2.001264    1.208235    0.350737
C      0.660944    1.069399   -0.373490
C     -0.268498    0.088933    0.352840
C     -1.631442    0.005488   -0.343819
C     -2.558516   -0.971444    0.373541
H      4.101490   -1.851704   -0.047670
H      2.557938    2.080377   -0.052599
H      0.826514    0.739383   -1.423359
H      0.178065    2.070455   -0.401007
H     -0.410825    0.428487    1.402717
H      0.195604   -0.921677    0.368258
H     -1.495284   -0.333323   -1.394084
H     -2.108572    1.009743   -0.356733
H     -3.535903   -1.010397   -0.151975
H     -2.116640   -1.990672    0.377571
H     -2.730950   -0.641898    1.420322
18

C      3.365879   -1.176817    0.103832
C      2.749283   -0.152194   -0.049255
C      1.999017    1.094387   -0.234455
C      0.610561    0.807800   -0.806580
C     -0.333848    0.183817    0.226419
C     -1.677416   -0.162472   -0.420626
C     -2.627301   -0.801343    0.588401
H      3.906731   -2.076433    0.238257
H      1.920992    1.632899    0.734082
H      2.559132    1.734833   -0.947625
H      0.169940    1.753222   -1.192160
H     -0.494576    0.901102    1.061221
H      0.122387   -0.743722    0.635643
H     -1.514961   -0.871271   -1.261978
H     -2.149148    0.760426   -0.823488
H     -3.591572   -1.039443    0.091956
H     -2.823737   -0.102590    1.429392
H     -2.191364   -1.742200    0.986976
18

C      3.145581   -1.305359    0.625181
C      2.597080   -0.305736    0.233687
C      1.928205    0.912150   -0.243687
C      0.427229    0.882772    0.058005
C     -0.294770   -0.162672   -0.801755
C     -1.821786   -0.045818   -0.746120
C     -2.390892   -0.486276    0.601300
H      3.626624   -2.183064    0.968860
H      2.385133    1.785395    0.268178
H      2.098278    1.021961   -1.336174
H      0.010541    1.888600   -0.166041
H      0.264499    0.674302    1.137893
H      0.031978   -1.193793   -0.544202
H     -2.247370   -0.695093   -1.540450
H     -2.133292    0.998874   -0.961688
H     -3.500227   -0.471464    0.556132
H     -2.066540    0.203986    1.407601
H     -2.060268   -1.518765    0.843291
18

C      3.245578    1.172965    0.274777
C      2.613487    0.233535   -0.139084
C      1.842814   -0.910763   -0.643702
C      0.532278   -1.092580    0.131789
C     -0.470408    0.033677   -0.151405
C     -1.769696   -0.203168    0.619586
C     -2.751372    0.947638    0.435211
H      3.800023    1.997799    0.638261
H      2.461736   -1.825746   -0.529687
H      1.634852   -0.766837   -1.725430
H      0.081196   -2.062617   -0.172361
H      0.745408   -1.144828    1.222924
H     -0.033864    1.006538    0.162784
H     -0.689413    0.075021   -1.241131
H     -2.244673   -1.153704    0.292239
H     -3.021910    1.056686   -0.636656
H     -3.672310    0.741377    1.019169
H     -2.303725    1.895005    0.802726
18

C      2.713379   -1.093508    1.137771
C      2.574803   -0.087550    0.271361
C      1.438697   -0.055989   -0.708440
C      0.119928    0.310375   -0.024813
C     -1.032878    0.270733   -1.032569
C     -2.336013    0.653144   -0.386108
C     -2.955098   -0.153777    0.480761
H      3.553486   -1.106833    1.824455
H      1.996414   -1.908587    1.166738
H      3.320830    0.701243    0.246046
H      1.665234    0.681795   -1.508471
H      0.200111    1.331068    0.410899
H     -0.082811   -0.412288    0.795355
H     -0.824500    0.988343   -1.855788
H     -1.120535   -0.745828   -1.475461
H     -2.801532    1.596614   -0.655740
H     -2.527618   -1.113455    0.755004
H     -3.901897    0.144498    0.919011
16

C      1.628560    2.212369    0.101436
C      1.696847    1.047676   -0.202073
C      1.780319   -0.370758   -0.571867
C      0.420965   -0.949946   -0.981490
C     -0.483316   -1.284664    0.217456
C     -1.004904   -0.056227    0.913356
C     -1.902575    0.750345    0.339686
H      1.567281    3.234561    0.368235
H      2.247892   -0.960282    0.245146
H     -0.097097   -0.265771   -1.688869
H      0.618055   -1.893461   -1.533411
H      0.081182   -1.905347    0.946453
H     -1.344959   -1.893091   -0.133896
H     -0.661467    0.164701    1.919638
H     -2.279888    0.547269   -0.657880
H     -2.266896    1.622626    0.872365
16

C      3.332936    0.635154   -0.362511
C      2.468567   -0.173264   -0.132942
C      1.415489   -1.157551    0.147274
C      0.060310   -0.690264   -0.387335
C     -0.513450    0.495613    0.393769
C     -1.904065    0.811872   -0.076717
C     -2.923276   -0.026257    0.134506
H      4.091371    1.345110   -0.564078
H      1.683643   -2.114255   -0.346956
H      1.356883   -1.336849    1.241593
H      0.120554   -0.460703   -1.474542
H     -0.537717    0.264233    1.480849
H      0.130264    1.388190    0.239920
H     -2.090039    1.756869   -0.578641
H     -3.920149    0.234104   -0.206004
H     -2.771322   -0.972003    0.646105
16

C      3.150516    0.742448    0.108688
C      2.196271    0.030110    0.296618
C      1.033210   -0.837149    0.526169
C      0.094308   -0.855505   -0.688840
C     -0.590753    0.494567   -0.948640
C     -1.537462    0.887774    0.149146
C     -2.708843    0.268356    0.308851
H      3.987913    1.368007   -0.056589
H      1.399156   -1.868423    0.714927
H      0.492161   -0.494964    1.433396
H      0.668247   -1.142799   -1.596472
H     -0.680828   -1.636712   -0.534755
H      0.162871    1.294098   -1.112620
H     -1.278903    1.717265    0.800486
H     -3.002961   -0.547855   -0.344091
H     -3.384903    0.580783    1.098016
14

C      2.896277    1.286558   -0.424140
C      2.281989    0.287738   -0.144540
C      1.533314   -0.929153    0.195732
C      0.110497   -0.614712    0.664193
C     -0.775545   -0.113837   -0.482455
C     -2.139430    0.135910   -0.002989
C     -3.260328    0.341397    0.390453
H      3.435138    2.163635   -0.669673
H      1.526979   -1.630250   -0.665921
H      0.144944    0.140726    1.480691
H     -0.324881   -1.548133    1.082744
H     -0.816317   -0.873708   -1.291776
H     -0.368431    0.832104   -0.898192
H     -4.244206    0.521727    0.736003
20

C      3.618340   -0.559589    0.252261
C      2.177477   -0.308782    0.572005
C      1.549993    0.783481    0.114881
C      0.109786    1.057269    0.438094
C     -0.831200    0.097098   -0.290548
C     -2.288708    0.506027   -0.063512
C     -3.244808   -0.430120   -0.797008
H      3.754450   -0.636713   -0.847177
H      4.243738    0.269699    0.645190
H      3.946359   -1.510317    0.722114
H      1.642674   -1.028545    1.185840
H      2.089927    1.512085   -0.482614
H     -0.054627    1.024832    1.537406
H     -0.671610   -0.938014    0.083621
H     -0.607936    0.122702   -1.379979
H     -2.521277    0.477557    1.023563
H     -2.447306    1.543657   -0.430747
H     -3.122133   -1.471601   -0.430414
H     -4.292127   -0.110148   -0.613407
H     -3.051011   -0.400577   -1.890477
20

C      3.166077    0.856934    0.075676
C      2.005940    0.019314    0.515579
C      1.121016   -0.453960   -0.372787
C     -0.045543   -1.300603    0.054629
C     -1.028759   -0.513957    0.930463
C     -1.719774    0.658113    0.218375
C     -2.752537    0.194453   -0.807301
H      2.799718    1.776896   -0.427048
H      3.774032    1.147702    0.957754
H      3.804745    0.280797   -0.626729
H      1.887071   -0.200431    1.573224
H      1.249012   -0.240614   -1.430782
H      0.334379   -2.169993    0.632992
H     -0.564104   -1.702105   -0.840580
H     -1.780795   -1.197253    1.381355
H     -2.237558    1.268597    0.988297
H     -0.969140    1.311588   -0.274848
H     -3.485612   -0.494747   -0.336755
H     -3.300051    1.075589   -1.203218
H     -2.258118   -0.316321   -1.659203
20

C     -3.419152    0.537325    0.018110
C     -2.367530   -0.558242   -0.107710
C     -0.960946   -0.025234    0.167935
C      0.080759   -1.124580   -0.060132
C      1.470062   -0.627629    0.231796
C      2.088985    0.244064   -0.576878
C      3.478117    0.717177   -0.280557
H     -3.213231    1.350686   -0.709212
H     -3.422546    0.953109    1.048204
H     -4.420399    0.111665   -0.200978
H     -2.609358   -1.388369    0.591370
H     -0.754711    0.828054   -0.514448
H     -0.899996    0.334576    1.218932
H     -0.136479   -1.980452    0.615451
H      0.028571   -1.491608   -1.108831
H      1.987421   -1.013508    1.106403
H      1.585628    0.617562   -1.464534
H      4.176784   -0.145828   -0.262864
H      3.501072    1.231998    0.703141
H      3.806948    1.429234   -1.066105
20

C      2.806923   -0.664290   -0.062635
C      2.278480    0.692948   -0.427738
C      1.185239    1.242107    0.129182
C      0.328412    0.558858    1.163111
C     -0.725245   -0.364438    0.546205
C     -1.824057    0.440881   -0.156459
C     -2.910378   -0.476347   -0.710507
H      3.726254   -0.873447   -0.648533
H      2.059089   -1.448989   -0.295235
H      3.064703   -0.698102    1.016481
H      2.826681    1.271042   -1.166005
H      0.901900    2.246813   -0.168117
H      0.943614    0.030299    1.921859
H     -1.182325   -0.962256    1.364367
H     -0.252618   -1.068849   -0.170632
H     -2.284872    1.151924    0.563652
H     -1.387638    1.023660   -0.996437
H     -3.387163   -1.051069    0.111951
H     -3.689329    0.132876   -1.215544
H     -2.477668   -1.183621   -1.449873
20

C      2.720710    0.148318    0.675974
C      2.155272    0.454390   -0.680741
C      1.011421   -0.076999   -1.146876
C      0.152158   -1.043537   -0.371793
C     -0.551372   -0.366413    0.810783
C     -1.544205    0.737083    0.417912
C     -2.809934    0.182666   -0.233250
H      3.682556    0.686699    0.806976
H      2.910753   -0.940675    0.776617
H      2.021223    0.483602    1.469323
H      2.708949    1.133190   -1.322932
H      0.695473    0.185354   -2.152452
H      0.781740   -1.876818    0.005660
H     -0.601033   -1.493519   -1.051319
H     -1.043148   -1.125190    1.457328
H     -1.832919    1.281723    1.341804
H     -1.062441    1.470215   -0.263251
H     -3.278051   -0.585458    0.418412
H     -3.537548    1.007435   -0.385740
H     -2.579603   -0.262067   -1.223341
20

C      3.238984   -0.265237   -0.165959
C      1.933831   -0.809543    0.401701
C      0.805123    0.217759    0.307528
C     -0.462792   -0.320177    0.975428
C     -1.574718    0.696246    0.913641
C     -2.431854    0.818890   -0.115383
C     -2.420644   -0.074185   -1.322419
H      3.116785   -0.011317   -1.240479
H      4.031731   -1.035530   -0.066600
H      3.552331    0.640026    0.395517
H      1.652953   -1.740574   -0.137406
H      0.606774    0.449457   -0.760756
H      1.117170    1.154079    0.820619
H     -0.243120   -0.529445    2.044986
H     -0.775766   -1.278868    0.509275
H     -1.677826    1.380465    1.751050
H     -3.187941    1.597179   -0.066117
H     -2.610261   -1.125981   -1.022608
H     -3.222751    0.239505   -2.022714
H     -1.448008   -0.002750   -1.850213
18

C      3.223488    0.578357    0.290298
C      2.591998   -0.090830   -0.676745
C      1.101478   -0.013500   -0.829443
C      0.385448   -0.827358    0.249843
C     -1.103759   -0.687478    0.113773
C     -1.721977    0.477368    0.354235
C     -3.208679    0.601113    0.228756
H      4.304277    0.524875    0.371060
H      2.671238    1.183879    1.002791
H      3.170689   -0.667827   -1.391974
H      0.813532   -0.389396   -1.835322
H      0.693009   -0.485271    1.261947
H      0.660098   -1.899538    0.145229
H     -1.686569   -1.562171   -0.163160
H     -1.144344    1.350931    0.644846
H     -3.522364    0.362411   -0.809442
H     -3.707888   -0.095094    0.935371
H     -3.519673    1.639529    0.467948
18

C      3.328302   -0.248848    0.301334
C      2.557155   -0.255545   -0.790170
C      1.108473    0.137764   -0.736971
C      0.284891   -0.934274   -0.021441
C     -1.188029   -0.657720   -0.107894
C     -1.754425    0.350162    0.569680
C     -3.227371    0.603800    0.484169
H      2.924711    0.032237    1.269393
H      4.375567   -0.523288    0.227832
H      2.997252   -0.520528   -1.747120
H      0.734910    0.248425   -1.777979
H      1.003714    1.118004   -0.222652
H      0.595041   -1.043055    1.040724
H     -1.799719   -1.316329   -0.717370
H     -1.145215    0.997837    1.194413
H     -3.786648   -0.284777    0.845932
H     -3.494333    1.477312    1.115002
H     -3.514276    0.818824   -0.566871
18

C      2.798537    0.582278    0.558925
C      2.376719    0.141550   -0.629610
C      1.003337   -0.434820   -0.815426
C     -0.080736    0.640002   -0.735299
C     -1.428611    0.046263   -1.048400
C     -2.229948   -0.532551   -0.136435
C     -1.900523   -0.623868    1.325787
H      3.802120    0.980962    0.665154
H      2.151126    0.545941    1.429987
H      3.049775    0.170651   -1.480295
H      0.827055   -1.254556   -0.086921
H      0.137269    1.422639   -1.493597
H     -0.081346    1.130601    0.261151
H     -1.766827    0.080424   -2.080185
H     -3.177999   -0.944077   -0.470614
H     -1.799429    0.392734    1.759886
H     -0.960918   -1.192887    1.478024
H     -2.719602   -1.151285    1.857879
18

C      3.064258   -0.365226   -0.065737
C      2.008490   -0.087932   -0.836367
C      0.939997    0.878556   -0.399671
C      0.097846    0.327632    0.753671
C     -0.720955   -0.861525    0.337160
C     -2.044787   -0.786132    0.138680
C     -2.824662    0.481324    0.333140
H      3.180113    0.095131    0.910726
H      3.824038   -1.056997   -0.414468
H      1.931953   -0.550144   -1.816087
H      0.275252    1.104607   -1.261171
H      1.410933    1.833225   -0.081861
H      0.725579    0.077384    1.635206
H     -0.214822   -1.806245    0.161434
H     -2.577355   -1.678506   -0.176910
H     -2.448687    1.268326   -0.354230
H     -2.730140    0.828568    1.383653
H     -3.897051    0.297954    0.112842
16

C      2.282117    1.074823   -1.591459
C      2.163884    0.276840   -0.695608
C      2.021659   -0.694655    0.396285
C      0.720081   -1.493841    0.298290
C     -0.477687   -0.674648    0.700689
C     -1.066490    0.179473   -0.147993
C     -2.263116    0.976798    0.268586
H      2.384894    1.775362   -2.377928
H      2.108748   -0.185678    1.380116
H      0.801536   -2.355125    0.994341
H      0.586815   -1.909009   -0.725078
H     -0.884791   -0.808115    1.699680
H     -0.683137    0.299577   -1.157269
H     -2.003787    1.625884    1.131517
H     -2.598557    1.616973   -0.573971
H     -3.092168    0.295340    0.554090
16

C      2.063660    1.272308   -1.504547
C      2.009459    0.374922   -0.701243
C      1.945310   -0.717174    0.277791
C      0.661980   -1.535452    0.124639
C     -0.553086   -0.834691    0.664743
C     -1.202688    0.098516   -0.043934
C     -2.419285    0.775021    0.506813
H      2.110261    2.059991   -2.209679
H      2.015983   -0.299863    1.304794
H      2.814761   -1.387201    0.115254
H      0.507768   -1.894221   -0.916894
H     -0.920447   -1.127306    1.643973
H     -0.855012    0.372423   -1.035960
H     -2.162226    1.311727    1.444411
H     -2.806951    1.507809   -0.231420
H     -3.209486    0.023193    0.715547
16

C      3.157047    0.886592    0.298792
C      2.192658    0.218504    0.575836
C      1.016535   -0.594472    0.913354
C      0.301677   -1.096954   -0.341729
C     -0.336201    0.033974   -1.109641
C     -1.420293    0.710533   -0.690997
C     -2.132839    0.420983    0.598436
H      4.003530    1.473152    0.055211
H      1.338358   -1.456878    1.534236
H     -0.474475   -1.837905   -0.055174
H      1.030028   -1.621716   -0.998204
H      0.094706    0.298588   -2.070989
H     -1.811508    1.502135   -1.323524
H     -1.455470    0.593676    1.460110
H     -3.007141    1.097473    0.699117
H     -2.496613   -0.627685    0.609454
16

C      3.200934    0.415210    0.970625
C      2.455073   -0.303210    0.353349
C      1.547578   -1.176840   -0.398718
C      0.091680   -0.839137   -0.081704
C     -0.328619    0.495821   -0.642696
C     -1.510001    1.057995   -0.345931
C     -2.515607    0.413088    0.562876
H      3.855378    1.046083    1.512490
H      1.747716   -2.227705   -0.102102
H      1.744881   -1.075504   -1.487450
H     -0.570647   -1.634186   -0.486844
H      0.348944    1.037025   -1.297965
H     -1.749402    2.026428   -0.775576
H     -3.400624    1.074556    0.669735
H     -2.846579   -0.557570    0.137362
H     -2.070705    0.247947    1.566837
18

C      4.053660    0.096112    0.145720
C      2.623409    0.189583   -0.146997
C      1.444650    0.266049   -0.387793
C      0.010478    0.359144   -0.680369
C     -0.777534   -0.665453    0.136641
C     -2.286623   -0.533154   -0.101210
C     -2.847305    0.775862    0.453690
H      4.353329    0.940395    0.800123
H      4.263772   -0.863647    0.661069
H      4.628946    0.140565   -0.801872
H     -0.152791    0.197242   -1.767134
H     -0.560656   -0.535369    1.220103
H     -0.459118   -1.689836   -0.157651
H     -2.507785   -0.601051   -1.188773
H     -2.801902   -1.379547    0.402353
H     -3.945959    0.804637    0.295493
H     -2.644117    0.852277    1.543082
H     -2.394454    1.646189   -0.066465
18

C      4.019125   -0.046165   -0.461125
C      2.619172    0.079738   -0.055811
C      1.465247    0.183107    0.277935
C      0.063182    0.309108    0.684047
C     -0.792159   -0.692313   -0.093362
C     -2.281159   -0.595637    0.254151
C     -2.940313    0.605958   -0.416917
H      4.657265    0.551299    0.222008
H      4.323524   -1.111979   -0.413732
H      4.138661    0.326586   -1.499214
H     -0.267106    1.346969    0.475325
H     -0.015661    0.113922    1.774674
H     -0.435797   -1.725591    0.114973
H     -2.786962   -1.515843   -0.109917
H     -2.423492   -0.542353    1.355495
H     -2.757930    0.584208   -1.512596
H     -2.549657    1.555678    0.003314
H     -4.035938    0.573307   -0.239239
18

C      3.938264   -0.755495   -0.152144
C      2.613040   -0.144889   -0.256467
C      1.520583    0.357776   -0.342166
C      0.191133    0.969194   -0.446317
C     -0.876859    0.019616    0.096726
C     -2.263807    0.651414   -0.028293
C     -3.361250   -0.307520    0.416758
H      4.550639   -0.187964    0.578444
H      3.835549   -1.806237    0.188821
H      4.433940   -0.735636   -1.144497
H     -0.013444    1.199740   -1.513791
H      0.188924    1.917015    0.133390
H     -0.668703   -0.207651    1.166063
H     -0.852911   -0.929912   -0.482784
H     -2.318026    1.584717    0.573675
H     -3.345171   -1.224461   -0.209271
H     -3.223073   -0.584458    1.483621
H     -4.348827    0.184751    0.298243
16

C     -3.503303   -0.841826    0.047594
C     -2.550081    0.083546    0.166756
C     -1.108909   -0.273936   -0.055945
C     -0.182532    0.896613    0.259232
C      1.213820    0.474436    0.124184
C      2.363165    0.127611    0.012934
C      3.757508   -0.293754   -0.122287
H     -3.257087   -1.866027   -0.216774
H     -4.542101   -0.576590    0.215551
H     -2.829512    1.098134    0.438640
H     -0.964904   -0.606745   -1.107687
H     -0.349214    1.241947    1.301754
H     -0.377193    1.737621   -0.440179
H      4.199897   -0.437536    0.884927
H      4.328027    0.485064   -0.668922
H      3.802420   -1.248559   -0.685491
16

C     -2.511511   -0.964634    0.316705
C     -1.765182    0.091761    0.652115
C     -1.350189    1.124375   -0.362726
C     -0.327038    0.577407   -1.361482
C      0.948263    0.248708   -0.711292
C      1.993860   -0.021849   -0.175880
C      3.261816   -0.350409    0.475401
H     -2.804813   -1.684379    1.073924
H     -2.836707   -1.116847   -0.707946
H     -1.472950    0.225723    1.689449
H     -2.245287    1.478550   -0.917466
H     -0.915884    2.001956    0.163431
H     -0.721581   -0.309846   -1.900475
H      3.072454   -0.635169    1.530831
H      3.932859    0.532569    0.445437
H      3.741889   -1.197917   -0.055738
14

C      2.492088    1.773138   -0.110968
C      2.204844    0.609594   -0.241047
C      1.853727   -0.808590   -0.400449
C      0.768339   -1.232815    0.586287
C     -0.521056   -0.630782    0.228347
C     -1.579924   -0.134695   -0.065320
C     -2.863990    0.468344   -0.422210
H      2.743895    2.794629    0.003417
H      2.764584   -1.424270   -0.244233
H      1.043407   -0.940142    1.622630
H      0.660066   -2.337103    0.551145
H     -2.693379    1.483068   -0.837066
H     -3.370000   -0.161587   -1.182466
H     -3.502601    0.541213    0.482065
14

C      2.662991    1.241847   -0.055171
C      2.200208    0.129804   -0.106328
C      1.635435   -1.225311   -0.167937
C      0.461531   -1.296070   -1.144155
C     -0.704688   -0.549378   -0.653398
C     -1.660509    0.064613   -0.250097
C     -2.819345    0.810665    0.240207
H      3.068865    2.218152   -0.010386
H      2.426885   -1.924186   -0.509667
H      1.310705   -1.538134    0.847459
H      0.754913   -0.930129   -2.151619
H     -2.474327    1.712650    0.786343
H     -3.410698    0.167943    0.924357
H     -3.451967    1.117535   -0.617972
20

C      3.189653    0.688636    0.735227
C      2.635744   -0.677958    0.358759
C      1.271806   -0.553190   -0.244630
C      0.201554   -1.046368    0.390570
C     -1.180646   -0.933918   -0.191228
C     -1.687573    0.512148   -0.139192
C     -3.106585    0.617877   -0.689916
H      3.287164    1.328997   -0.167519
H      2.518493    1.182953    1.469323
H      4.190938    0.563909    1.197278
H      3.317083   -1.181883   -0.359129
H      1.160025   -0.043771   -1.198089
H      0.327460   -1.565281    1.337365
H     -1.865145   -1.582794    0.397279
H     -1.173696   -1.302405   -1.240585
H     -1.681410    0.872681    0.912822
H     -1.021869    1.169428   -0.739773
H     -3.801619   -0.006383   -0.088828
H     -3.446309    1.673934   -0.641757
H     -3.135067    0.283387   -1.748884
20

C      3.546772   -0.625342    0.292443
C      2.270471   -0.080797   -0.337582
C      1.116317   -0.125670    0.663196
C     -0.177168    0.314019    0.040352
C     -1.321773    0.235230    0.731606
C     -2.632298    0.675363    0.139587
C     -3.103185   -0.287847   -0.946589
H      4.369259   -0.601126   -0.453175
H      3.841098   -0.005329    1.166095
H      3.395188   -1.675520    0.621922
H      2.017643   -0.699618   -1.225995
H      2.442385    0.966837   -0.668326
H      1.344600    0.515962    1.542284
H     -0.187156    0.690235   -0.979997
H     -1.309921   -0.126748    1.756494
H     -3.398133    0.707383    0.944017
H     -2.532708    1.699538   -0.280973
H     -3.206475   -1.313764   -0.532723
H     -4.091399    0.041467   -1.331140
H     -2.383517   -0.304273   -1.792402
20

C      3.317921   -0.828617    0.468833
C      1.827470   -0.734987    0.166277
C      1.378044    0.716450   -0.009155
C     -0.064038    0.777491   -0.425188
C     -1.055383    0.481880    0.429731
C     -2.499850    0.570572    0.021769
C     -2.869817   -0.541824   -0.955360
H      3.905869   -0.386434   -0.362875
H      3.554180   -0.295564    1.414368
H      3.604174   -1.895474    0.576450
H      1.252875   -1.225091    0.982095
H      1.993065    1.195478   -0.801198
H      1.523135    1.283818    0.936262
H     -0.299896    1.100706   -1.435643
H     -0.821435    0.199261    1.452679
H     -3.136449    0.475886    0.927528
H     -2.702943    1.561516   -0.439163
H     -2.670430   -1.535663   -0.500349
H     -3.950199   -0.474175   -1.202502
H     -2.286294   -0.445231   -1.895466
20

C      3.569189   -0.680921    0.280217
C      2.048818   -0.655622    0.194353
C      1.498723    0.725064    0.433471
C      0.200551    1.020337    0.264289
C     -0.817663   -0.002194   -0.175471
C     -2.208785    0.625304   -0.313260
C     -3.238438   -0.408878   -0.759141
H      4.005179    0.006370   -0.475386
H      3.931098   -1.709751    0.074742
H      3.904017   -0.377836    1.295299
H      1.620365   -1.367087    0.932589
H      2.172221    1.521807    0.739073
H     -0.118760    2.043107    0.448312
H     -0.857202   -0.821915    0.574753
H     -0.506746   -0.426418   -1.155344
H     -2.526163    1.050627    0.664088
H     -2.176412    1.446776   -1.062237
H     -3.308252   -1.230006   -0.014175
H     -4.234407    0.073549   -0.850123
H     -2.957334   -0.832314   -1.746957
20

C      3.080062   -0.038080    0.089014
C      1.978103    0.089713   -0.961764
C      0.609612    0.366997   -0.333079
C      0.013187   -0.843161    0.338005
C     -1.242641   -0.863766    0.814808
C     -2.193309    0.303780    0.733878
C     -2.751587    0.471147   -0.676796
H      4.054927   -0.204454   -0.415756
H      2.882323   -0.897242    0.763516
H      3.148114    0.892454    0.691843
H      1.934800   -0.834738   -1.577626
H      2.228042    0.934947   -1.637518
H      0.665257    1.224352    0.372106
H      0.610999   -1.744903    0.437382
H     -1.591250   -1.767763    1.306069
H     -3.042207    0.118393    1.426486
H     -1.692135    1.239139    1.062558
H     -3.266972   -0.458919   -0.998911
H     -3.484688    1.304991   -0.688222
H     -1.940639    0.707112   -1.396899
20

C      2.756897    0.910111    0.247217
C      1.695451   -0.123853    0.600663
C      0.934736   -0.598455   -0.637468
C     -0.169565   -1.544275   -0.246267
C     -1.325074   -1.167305    0.332750
C     -1.710599    0.261722    0.619629
C     -2.430724    0.880179   -0.574142
H      2.283735    1.796886   -0.224759
H      3.504651    0.473850   -0.448810
H      3.274445    1.235783    1.173335
H      2.168688   -0.987459    1.117068
H      1.639599   -1.132282   -1.311122
H      0.519549    0.265503   -1.197489
H     -0.022216   -2.600802   -0.451483
H     -2.049880   -1.938958    0.576151
H     -2.399380    0.272532    1.491281
H     -0.827938    0.876578    0.891649
H     -3.350584    0.302854   -0.808775
H     -2.719511    1.924796   -0.332799
H     -1.772280    0.892595   -1.467535
18

C      3.802068    0.086090   -0.011622
C      2.555804    0.357293   -0.387888
C      1.420773   -0.437668    0.107707
C      0.172521   -0.163048   -0.270936
C     -0.973118   -0.980442    0.250387
C     -2.335553   -0.411093   -0.152463
C     -2.657215    0.863984    0.622055
H      4.622576    0.683177   -0.387859
H      4.018066   -0.727362    0.670164
H      2.381860    1.180007   -1.071738
H      1.604207   -1.259075    0.792196
H     -0.017679    0.660373   -0.950910
H     -0.878832   -2.023502   -0.121919
H     -2.365390   -0.210635   -1.245836
H     -3.116622   -1.167234    0.077635
H     -3.673918    1.217114    0.349052
H     -2.630685    0.666521    1.715003
H     -1.928864    1.665499    0.376982
18

C      3.346647    0.677129    0.306701
C      2.108964    0.796523    0.778004
C      1.066294   -0.183689    0.435792
C     -0.175854   -0.059850    0.910261
C     -1.249284   -1.057724    0.578059
C     -1.679069   -0.980256   -0.891158
C     -2.383433    0.328745   -1.235516
H      4.098639    1.409459    0.570307
H      3.623242   -0.144837   -0.342194
H      1.872343    1.633901    1.424159
H      1.312931   -1.018883   -0.210542
H     -0.424721    0.761716    1.572256
H     -2.132343   -0.877423    1.227927
H     -0.881431   -2.083403    0.794955
H     -0.818878   -1.153181   -1.573354
H     -2.734319    0.288813   -2.287515
H     -3.262854    0.476563   -0.574069
H     -1.686875    1.186394   -1.124060
18

C      2.995555   -0.486186    1.044942
C      1.869790   -0.474670    0.336988
C      1.375767    0.771425   -0.282330
C      0.240059    0.856062   -0.987860
C     -0.699142   -0.291975   -1.234930
C     -1.571208   -0.623010   -0.020421
C     -2.603939    0.470563    0.235563
H      3.578129    0.415516    1.188745
H      3.344879   -1.408545    1.490630
H      1.326879   -1.403555    0.222597
H      1.968725    1.672435   -0.173597
H     -0.019786    1.808352   -1.432131
H     -0.155202   -1.185767   -1.608369
H     -2.108228   -1.574736   -0.220700
H     -0.947268   -0.766919    0.887193
H     -3.233851    0.623756   -0.666641
H     -2.101957    1.425470    0.499602
H     -3.259201    0.171783    1.080731
18

C      3.111936    0.088085   -0.673946
C      1.858229   -0.106986   -0.275365
C      1.447663    0.191454    1.111528
C      0.200363    0.025302    1.573339
C     -0.949414   -0.485526    0.750780
C     -1.374982    0.555804   -0.285123
C     -2.474410    0.025981   -1.196789
H      3.396447   -0.136355   -1.693798
H      3.864215    0.470816    0.004826
H      1.145983   -0.491744   -0.993450
H      2.195692    0.561781    1.803363
H      0.008260    0.253160    2.615025
H     -1.807297   -0.695824    1.425768
H     -0.663924   -1.439505    0.257086
H     -1.720431    1.483824    0.220711
H     -2.742918    0.805994   -1.939152
H     -3.377228   -0.232484   -0.603466
H     -2.118184   -0.873777   -1.741326
16

C      4.297510   -0.320513   -0.067513
C      3.125115   -0.543336    0.103246
C      1.726769   -0.809615    0.307820
C      0.810971   -0.291237   -0.506788
C     -0.640834   -0.564178   -0.282866
C     -1.386104    0.715994    0.088446
C     -2.843338    0.411121    0.413570
H      5.326681   -0.124815   -0.217524
H      1.430813   -1.438998    1.138197
H      1.105873    0.344304   -1.334668
H     -1.076835   -1.017480   -1.199007
H     -0.909644    1.179737    0.979670
H     -1.341752    1.437693   -0.756413
H     -3.365370    1.349338    0.696849
H     -3.353193   -0.025660   -0.471639
H     -2.906661   -0.302357    1.262906
16

C      3.708840    0.677312   -0.046141
C      2.618968    0.223223    0.197233
C      1.318918   -0.318014    0.488512
C      0.496121   -0.678033   -0.497655
C     -0.880432   -1.212530   -0.220959
C     -1.956803   -0.167910   -0.525192
C     -1.966807    0.984215    0.475140
H      4.665582    1.075963   -0.259936
H      1.019267   -0.421446    1.523920
H      0.796954   -0.543220   -1.530884
H     -1.051581   -2.090939   -0.877830
H     -0.978345   -1.564343    0.829699
H     -1.858586    0.215911   -1.564158
H     -1.026047    1.569704    0.404326
H     -2.821358    1.655340    0.250003
H     -2.084692    0.594767    1.508211
16

C      3.026680    1.166983    0.236189
C      2.388278    0.156732    0.394636
C      1.624327   -1.050751    0.584802
C      0.485119   -1.290114   -0.070226
C     -0.108723   -0.323473   -1.055272
C     -0.925849    0.778371   -0.372779
C     -2.210416    0.238778    0.253930
H      3.586538    2.054131    0.096847
H      1.999918   -1.791948    1.278247
H     -0.029079   -2.227560    0.102667
H     -0.728539   -0.864821   -1.802184
H     -0.314432    1.282179    0.406407
H     -1.193009    1.538963   -1.136759
H     -2.788452    1.078100    0.694678
H     -2.837529   -0.257694   -0.516876
H     -1.974834   -0.487876    1.059980
16

C      1.803165    1.890618    1.013982
C      1.735471    0.705280    0.805039
C      1.653055   -0.712149    0.557290
C      0.836786   -1.247371   -0.358491
C     -0.103292   -0.452167   -1.225580
C     -1.539663   -0.550618   -0.708139
C     -1.760941    0.252152    0.570903
H      1.861565    2.931249    1.197000
H      2.278684   -1.368164    1.148562
H      0.817221   -2.326036   -0.457333
H     -0.071522   -0.889463   -2.246007
H      0.205065    0.610983   -1.323090
H     -2.240927   -0.189132   -1.491046
H     -1.506445    1.320955    0.407333
H     -2.827665    0.179772    0.868405
H     -1.140558   -0.155910    1.395459
18

C      3.032772    0.627540    0.035210
C      2.368943   -0.223768   -0.751888
C      1.497725   -1.304237   -0.185147
C      0.228531   -0.736401    0.368174
C     -0.928368   -0.894262   -0.286878
C     -2.216105   -0.325063    0.241086
C     -2.238498    1.196780    0.127492
H      3.656915    1.398992   -0.403817
H      2.958487    0.561367    1.116568
H      2.460955   -0.138834   -1.829841
H      2.037956   -1.890922    0.588261
H      0.263513   -0.169799    1.294823
H     -0.952355   -1.468394   -1.209539
H     -3.061612   -0.739124   -0.349076
H     -2.356718   -0.626887    1.301673
H     -3.217167    1.580908    0.484605
H     -1.435248    1.646385    0.749011
H     -2.099726    1.505718   -0.930705
18

C      2.994180   -0.564644    0.037942
C      2.207686   -0.153459   -0.961119
C      1.179604    0.925671   -0.762927
C      0.061128    0.454783    0.124648
C     -0.808494   -0.482289   -0.282086
C     -1.919531   -0.963694    0.604944
C     -3.003894    0.092073    0.782032
H      2.907792   -0.132012    1.030202
H      3.731665   -1.341421   -0.135763
H      2.321667   -0.599775   -1.944570
H      0.765089    1.230227   -1.748098
H      1.663962    1.817340   -0.309602
H     -0.040596    0.897193    1.111953
H     -0.701412   -0.935609   -1.263041
H     -1.522080   -1.290924    1.589971
H     -3.406518    0.395132   -0.207636
H     -2.598568    0.983566    1.305916
H     -3.831679   -0.332157    1.387246
16

C      3.695286    0.336186   -0.840866
C      2.761930   -0.417561   -0.721941
C      1.626207   -1.334802   -0.578481
C      0.510880   -0.674883    0.173876
C     -0.231413    0.287832   -0.392236
C     -1.357471    0.953577    0.349388
C     -2.542354    0.008169    0.526590
H      4.514411    0.998084   -0.945165
H      1.962194   -2.241354   -0.032939
H      0.285659   -1.015262    1.181048
H     -0.002195    0.623995   -1.400155
H     -1.001637    1.303788    1.342587
H     -1.693308    1.841640   -0.227837
H     -3.370290    0.543173    1.037658
H     -2.253649   -0.867681    1.145530
H     -2.904253   -0.344900   -0.462771
16

C      2.752154    1.260336    1.068786
C      2.335441    0.248780    0.562210
C      1.828278   -0.981872   -0.054974
C      0.327088   -0.976607   -0.083742
C     -0.356772   -0.135733   -0.873241
C     -1.856215   -0.162710   -0.918539
C     -2.460731    0.452736    0.338036
H      3.117582    2.148419    1.513401
H      2.182011   -1.849436    0.540549
H      2.230146   -1.074953   -1.086253
H     -0.207376   -1.694636    0.532793
H      0.174970    0.555788   -1.521503
H     -2.211333    0.398507   -1.809236
H     -2.158396   -0.126578    1.235737
H     -3.567666    0.430625    0.260957
H     -2.129182    1.507335    0.449307
18

C      2.600301    0.542763    1.124595
C      2.374333    0.933864   -0.330411
C      1.004038    0.611384   -0.741223
C     -0.123313    0.344420   -1.074433
C     -1.498223    0.017354   -1.473025
C     -2.111191   -1.041136   -0.554846
C     -2.410859   -0.475630    0.831315
H      1.900496    1.096552    1.787068
H      3.641170    0.793952    1.418692
H      2.446851   -0.549609    1.259783
H      3.087456    0.383440   -0.979678
H      2.543658    2.024228   -0.454460
H     -1.489727   -0.353041   -2.519943
H     -3.064991   -1.389828   -1.005822
H     -1.432923   -1.918481   -0.467060
H     -3.083453    0.404921    0.750306
H     -1.471163   -0.174201    1.341163
H     -2.912460   -1.250954    1.447992
18

C      3.578416   -0.151352   -0.708204
C      2.095377   -0.495000   -0.642759
C      1.390269    0.269201    0.474549
C     -0.046378   -0.014611    0.439103
C     -1.229123   -0.247384    0.410229
C     -2.667685   -0.530871    0.374433
C     -3.453117    0.732355    0.044917
H      4.080862   -0.425040    0.244084
H      4.049733   -0.716884   -1.538785
H      3.711428    0.934553   -0.898718
H      1.972958   -1.591184   -0.498262
H      1.538811    1.361701    0.340694
H      1.796515   -0.035958    1.462479
H     -2.866098   -1.305060   -0.396571
H     -2.985895   -0.920297    1.364511
H     -3.153493    1.125628   -0.950483
H     -3.274201    1.511580    0.816961
H     -4.538378    0.498622    0.021834
16

C      3.589058   -0.971190    0.230397
C      3.124668    0.262662    0.393540
C      1.717990    0.539774    0.285474
C      0.538293    0.771261    0.194622
C     -0.897149    1.051280    0.083885
C     -1.683906   -0.239301   -0.133103
C     -3.180761    0.045625   -0.164014
H      2.921521   -1.796553    0.012535
H      4.650482   -1.164935    0.314539
H      3.808647    1.072924    0.610493
H     -1.067601    1.755771   -0.758148
H     -1.472411   -0.950431    0.695381
H     -1.380998   -0.710524   -1.094032
H     -3.737533   -0.904990   -0.303863
H     -3.426521    0.728173   -1.005573
H     -3.503780    0.510454    0.792154
16

C      2.869428   -1.449349    0.445162
C      2.469267   -0.356230    1.084796
C      1.265231    0.325350    0.694568
C      0.254734    0.894617    0.365674
C     -0.977437    1.583667   -0.037387
C     -1.724640    0.798533   -1.116809
C     -2.350885   -0.489406   -0.588468
H      3.777625   -1.952470    0.750280
H      2.300551   -1.852490   -0.384639
H      3.051101    0.029295    1.912278
H     -0.709487    2.581576   -0.442408
H     -1.626987    1.731977    0.850613
H     -1.064022    0.585010   -1.986070
H     -1.563992   -1.191706   -0.240060
H     -2.926939   -0.975723   -1.402761
H     -3.043548   -0.262649    0.249520
14

C      1.732370    2.073207    3.304873
C      1.498229    1.361523    2.360747
C      1.223823    0.528093    1.255001
C      0.988470   -0.183196    0.310733
C      0.700417   -1.048675   -0.840447
C     -0.804415   -1.197159   -1.069502
C     -1.416832    0.088731   -1.618835
H      1.937949    2.698131    4.133893
H      1.153278   -2.046562   -0.660858
H     -1.314650   -1.486192   -0.124277
H     -0.970435   -2.009136   -1.809693
H     -0.909765    0.383650   -2.562306
H     -2.494664   -0.074416   -1.830041
H     -1.323776    0.912000   -0.879156
14

C      4.207580    0.525129   -0.379561
C      3.043052    0.524868   -0.068814
C      1.679157    0.524458    0.294974
C      0.514165    0.523543    0.604859
C     -0.903212    0.520914    0.981650
C     -1.789228    0.352157   -0.252709
C     -1.733948   -1.062524   -0.824640
H      5.230129    0.525350   -0.652436
H     -1.094325   -0.290490    1.715997
H     -1.137152    1.492853    1.464394
H     -2.840914    0.599988    0.007708
H     -0.699856   -1.312140   -1.141941
H     -2.398123   -1.124672   -1.711592
H     -2.077326   -1.799434   -0.067759
20

C      2.465183   -0.392706   -0.868285
C      1.232421   -1.040286   -0.247087
C      0.454160   -0.048473    0.643352
C     -0.681213   -0.709450    1.426160
C     -1.682769    0.262905    0.815600
C     -0.567300    0.907521   -0.007890
C     -0.815230    0.795419   -1.519554
H      2.195093    0.457969   -1.524536
H      3.168662   -0.049753   -0.079974
H      0.597534   -1.482603   -1.040170
H      1.585545   -1.881410    0.387377
H      1.133343    0.497755    1.336890
H     -0.576381   -0.576745    2.525277
H     -0.886375   -1.760622    1.124005
H     -2.460233   -0.257556    0.213261
H     -2.105557    0.960577    1.571383
H     -0.389067    1.962863    0.296924
H     -1.094637   -0.235370   -1.821425
H     -1.653385    1.468119   -1.798438
H      0.080208    1.121848   -2.083775
20

C      2.631940   -0.580957    0.044819
C      1.237483   -0.525826   -0.566767
C      0.366769    0.558146    0.096563
C     -0.260991    0.121550    1.421754
C     -1.654534    0.326556    0.837426
C     -1.039471    0.766033   -0.491256
C     -1.444409   -0.121969   -1.676582
H      3.139560    0.399550   -0.072143
H      3.231683   -1.354619   -0.478025
H      2.571377   -0.840468    1.123018
H      0.764645   -1.529963   -0.507123
H      0.904518    1.528458    0.190828
H     -0.040260    0.832227    2.247948
H     -0.070780   -0.941164    1.690062
H     -2.230741   -0.623579    0.782212
H     -2.206597    1.149916    1.341230
H     -1.239242    1.840774   -0.700772
H     -1.363091   -1.201688   -1.430389
H     -2.498241    0.092711   -1.952141
H     -0.799620    0.104313   -2.551568
20

C      2.577897    0.783560   -0.420421
C      1.079364    0.956183   -0.641921
C      0.307364   -0.264775   -0.116677
C      0.124900   -0.259131    1.402574
C     -1.380666   -0.116260    1.228461
C     -1.204908   -0.117748   -0.288295
C     -1.821074   -1.337050   -0.973787
H      3.118932    1.656332   -0.842871
H      2.805586    0.717333    0.664523
H      2.937432   -0.137620   -0.926816
H      0.734616    1.892310   -0.149025
H      0.894228    1.053077   -1.733434
H      0.406227   -1.237133    1.848459
H      0.577031    0.614404    1.922409
H     -1.939435   -0.992641    1.625793
H     -1.756830    0.859145    1.607363
H     -1.526124    0.841293   -0.754388
H     -1.526337   -1.349193   -2.044203
H     -2.928102   -1.280187   -0.910541
H     -1.480100   -2.281898   -0.497202
20

C      2.264903   -0.732131   -0.429128
C      1.380493    0.082387    0.512395
C      0.243402    0.793367   -0.246643
C     -0.520447    1.749016    0.665264
C     -1.816445    1.004378    0.373740
C     -1.065684    0.029825   -0.530329
C     -1.187778   -1.427464   -0.060496
H      2.736145   -0.066529   -1.183400
H      1.679792   -1.511801   -0.955018
H      3.069007   -1.227995    0.154332
H      0.999594   -0.559670    1.331933
H      2.022378    0.856620    0.986709
H      0.616445    1.323552   -1.152573
H     -0.550373    2.770036    0.224317
H     -2.550069    1.626332   -0.184905
H     -2.234050    0.546973    1.297008
H     -1.374889    0.138801   -1.593846
H     -0.982696   -1.537743    1.024306
H     -2.224782   -1.779093   -0.244311
H     -0.504946   -2.078862   -0.640263
20

C      2.473741   -0.500535   -0.186854
C      1.165085    0.209291   -0.524042
C      0.113089   -0.006712    0.584101
C     -0.539646   -1.388402    0.562635
C     -1.911727   -0.750044    0.382425
C     -1.270604    0.633318    0.377712
C     -1.522922    1.365195   -0.944986
H      2.310422   -1.595707   -0.101286
H      3.215300   -0.315032   -0.992238
H      2.886126   -0.115825    0.770191
H      1.372640    1.296454   -0.620541
H      0.799471   -0.166555   -1.503740
H      0.515387    0.241001    1.592544
H     -0.439201   -1.924418    1.531861
H     -0.267083   -2.007564   -0.319331
H     -2.526276   -0.888305    1.299400
H     -1.581825    1.244453    1.254523
H     -1.333750    0.708637   -1.820529
H     -2.582154    1.695864   -0.983989
H     -0.876073    2.264887   -1.008764
20

C      2.656906   -0.185020   -0.212257
C      1.424729    0.506743    0.364954
C      0.138176   -0.254568    0.012079
C     -0.331317   -0.057552   -1.429997
C     -1.569090    0.673048   -0.928640
C     -1.104711    0.482358    0.514249
C     -2.041431   -0.421450    1.321321
H      2.601995   -0.217712   -1.320810
H      2.736930   -1.220870    0.180967
H      3.568921    0.376759    0.080136
H      1.379085    1.552961   -0.010992
H      1.526538    0.545176    1.471157
H      0.177020   -1.328454    0.306530
H     -0.582872   -1.020716   -1.925305
H      0.325781    0.598571   -2.042475
H     -2.512453    0.141927   -1.186224
H     -1.569435    1.746327   -1.216131
H     -2.260796   -1.368572    0.781679
H     -2.994646    0.113844    1.512966
H     -1.569328   -0.662801    2.296436
20

C     -1.696385    1.356443    0.640300
C     -1.341537   -0.129849    0.561157
C     -1.666165   -0.740126   -0.800735
C     -0.195219   -1.078533   -1.008862
C      0.145174   -0.468863    0.352993
C      1.121412    0.723756    0.274796
C      2.548051    0.256068   -0.001785
H     -2.796542    1.487623    0.567776
H     -1.347118    1.777870    1.606058
H     -1.791605   -0.712280    1.395797
H     -2.301024   -1.649234   -0.717043
H     -2.037538   -0.006812   -1.551049
H      0.238989   -0.533966   -1.876278
H     -0.013359   -2.175089   -1.038525
H      0.484913   -1.241501    1.079207
H      0.812291    1.436783   -0.520920
H      1.113374    1.261714    1.247042
H      2.604536   -0.264645   -0.980903
H      3.227732    1.133691   -0.028580
H      2.890022   -0.433050    0.799554
20

C      2.609481    0.543485    0.017542
C      1.582503   -0.187410    0.874190
C      0.338943   -0.567920    0.052445
C     -0.754426   -1.234054    0.889077
C     -1.696718   -0.072725    0.594622
C     -0.606258    0.607196   -0.232105
C     -0.964039    0.754739   -1.713515
H      2.199286    1.502621   -0.363166
H      2.937603   -0.092364   -0.832137
H      2.052099   -1.112712    1.270771
H      1.305764    0.455160    1.738454
H      0.591751   -1.175438   -0.846540
H     -0.513676   -1.317554    1.972223
H     -1.108318   -2.187523    0.439394
H     -2.586465   -0.388655    0.005924
H     -1.952915    0.503864    1.510261
H     -0.281909    1.571311    0.220057
H     -1.307462   -0.211027   -2.143670
H     -1.772649    1.506860   -1.827870
H     -0.072594    1.102146   -2.276864
20

C      2.777727   -0.195423    0.271448
C      1.507295    0.642631    0.346561
C      0.304233   -0.082734   -0.275290
C     -0.308310   -1.157003    0.625809
C     -1.600216   -0.353131    0.714049
C     -0.992649    0.728295   -0.179204
C     -1.714824    0.886985   -1.520523
H      3.010402   -0.442136   -0.785813
H      2.658759   -1.134006    0.852863
H      3.624377    0.383875    0.694656
H      1.305559    0.942427    1.398706
H      0.515979   -0.460396   -1.301432
H      0.189384   -1.264003    1.614964
H     -0.448582   -2.122922    0.093240
H     -2.463732   -0.889030    0.261056
H     -1.797770    0.013898    1.744955
H     -0.881467    1.698937    0.355116
H     -1.836562   -0.092698   -2.031587
H     -2.718295    1.331374   -1.352432
H     -1.131308    1.565060   -2.178048
20

C      2.706280   -0.275410    0.331208
C      1.509330    0.450287   -0.277309
C      0.197066   -0.294036    0.012498
C     -0.272553   -0.110155    1.453759
C     -1.503996    0.637616    0.957927
C     -1.042757    0.455445   -0.485607
C     -1.986046   -0.414906   -1.321180
H      3.638653    0.275062    0.085139
H      2.782770   -1.304803   -0.079327
H      2.606900   -0.327587    1.436177
H      1.468621    1.487433    0.123812
H      1.652405    0.511272   -1.377818
H      0.230024   -1.364263   -0.295916
H     -0.565940   -1.090500    1.889894
H     -2.453580    0.114292    1.208819
H     -1.485368    1.702506    1.274507
H     -0.817839    1.427107   -0.980819
H     -2.216438   -1.371672   -0.804130
H     -2.934642    0.132746   -1.502636
H     -1.512892   -0.640433   -2.299903
20

C      2.628041   -0.251670    0.069734
C      1.393304    0.536097   -0.359818
C      0.098590   -0.228823   -0.033137
C     -0.289880   -0.200088    1.445494
C     -1.564344    0.563191    1.107197
C     -1.169464    0.562252   -0.369038
C     -2.147152   -0.196823   -1.271614
H      2.656463   -1.235082   -0.446095
H      3.543115    0.316688   -0.199455
H      2.622967   -0.414520    1.168160
H      1.400200    1.530670    0.138617
H      1.443664    0.702480   -1.457584
H      0.096920   -1.262968   -0.447448
H     -0.494128   -1.214980    1.851773
H      0.386422    0.408094    2.084407
H     -2.457525   -0.070023    1.307427
H     -0.974154    1.595197   -0.733512
H     -2.347786   -1.217870   -0.880641
H     -3.106024    0.359498   -1.332801
H     -1.719230   -0.281319   -2.292572
20

C     -2.175523    1.236366    0.226152
C     -1.003916    0.271143    0.389216
C     -1.297365   -1.112228   -0.192403
C     -0.232913   -0.898318   -1.263693
C      0.083831    0.476632   -0.673345
C      1.532101    0.653317   -0.154738
C      1.985515   -0.312383    0.949087
H     -3.015602    0.928029    0.883474
H     -1.858115    2.264905    0.498382
H     -0.648976    0.226778    1.438928
H     -1.024353   -1.929218    0.510803
H     -2.317387   -1.220855   -0.623921
H     -0.676935   -0.823838   -2.280668
H      0.593665   -1.637402   -1.209939
H     -0.168886    1.282165   -1.400419
H      2.221597    0.546227   -1.019836
H      1.643503    1.691762    0.224589
H      1.768109   -1.368048    0.693088
H      3.082867   -0.213646    1.087130
H      1.508783   -0.061387    1.918114
18

C      2.129083    1.312222   -1.108759
C      1.432842    1.068093    0.002547
C      0.849558   -0.301531    0.271017
C      0.141575   -0.415303    1.622517
C     -1.162839   -0.770855    0.918695
C     -0.473770   -0.640370   -0.439635
C     -1.094531    0.453158   -1.321518
H      2.283266    0.541764   -1.858215
H      1.320173    1.868381    0.726855
H      1.607809   -1.107259    0.146924
H      0.061569    0.540082    2.186617
H      0.532042   -1.256682    2.235930
H     -1.485242   -1.813892    1.130230
H     -1.959520   -0.016159    1.102883
H     -0.418549   -1.616641   -0.970766
H     -1.172577    1.419054   -0.777524
H     -0.477917    0.595160   -2.233374
H     -2.112972    0.140780   -1.634424
18

C      2.365585   -0.143376    1.145768
C      1.170464   -0.723880    1.031351
C      0.431764   -0.768281   -0.282151
C     -0.885077   -1.535804   -0.182650
C     -1.655256   -0.286443   -0.594873
C     -0.346423    0.498053   -0.683322
C     -0.293927    1.688631    0.285451
H      2.845483    0.319410    0.288699
H      2.865745   -0.130107    2.107557
H      1.067112   -1.154242   -1.110752
H     -1.144817   -1.865631    0.848311
H     -0.961319   -2.347419   -0.939067
H     -2.346442    0.064107    0.203576
H     -2.146695   -0.401697   -1.585740
H     -0.119724    0.806593   -1.728161
H     -1.016118    2.464665   -0.044549
H      0.723149    2.133027    0.278890
H     -0.553503    1.382395    1.321673
18

C      2.827211   -0.570981    0.258966
C      1.749596   -0.019342   -0.301929
C      0.432939    0.004068    0.433710
C     -0.298770   -1.335282    0.345709
C     -1.419731   -0.680689   -0.449697
C     -0.693031    0.659747   -0.368597
C     -1.440501    1.708627    0.454881
H      3.774067   -0.575281   -0.271148
H      2.773294   -1.021259    1.245744
H      1.843555    0.431233   -1.285950
H      0.235055   -2.118363   -0.238265
H     -0.637818   -1.679162    1.346396
H     -2.393804   -0.707479    0.087575
H     -1.476544   -1.066321   -1.491134
H     -0.397736    1.041668   -1.371662
H     -2.359708    2.020171   -0.084390
H     -0.792907    2.599245    0.597041
H     -1.725169    1.309401    1.452762
18

C      2.353701   -0.003088    0.802695
C      1.129122   -0.473416    1.051756
C      0.244412   -0.967937   -0.071695
C     -1.101061   -1.529070    0.391100
C     -1.826440   -0.493028   -0.458965
C     -0.489887    0.100566   -0.898848
C     -0.315241    1.562778   -0.462320
H      2.734334    0.049605   -0.212944
H      2.982610    0.335618    1.619496
H      0.788942   -0.523526    2.082027
H      0.767245   -1.707403   -0.717703
H     -1.299288   -1.338071    1.469179
H     -2.459044    0.191519    0.149276
H     -2.372775   -0.970345   -1.300637
H     -0.316977   -0.028823   -1.990448
H     -1.024709    2.203695   -1.026767
H      0.716906    1.901868   -0.689372
H     -0.511850    1.689058    0.624180
18

C      2.372727   -0.674181    0.835535
C      1.372362    0.107380    0.419899
C      0.343093   -0.412968   -0.562048
C     -0.557450   -1.498329    0.026799
C     -1.791135   -0.650546   -0.256641
C     -0.902410    0.449594   -0.836218
C     -1.033836    1.787165   -0.094288
H      3.118090   -0.285126    1.521645
H      2.455264   -1.702557    0.496550
H      1.350571    1.133028    0.769193
H      0.820019   -0.747295   -1.510742
H     -0.409416   -1.676203    1.115674
H     -0.552818   -2.428397   -0.581074
H     -2.276667   -0.348502    0.698255
H     -1.083945    0.568455   -1.926905
H     -2.031348    2.227229   -0.304269
H     -0.258638    2.494755   -0.456063
H     -0.934462    1.656499    1.004710
18

C      2.584404   -0.053014    0.529285
C      1.441410    0.458663    0.064573
C      0.389072   -0.438892   -0.553269
C     -0.269720   -1.384865    0.450096
C     -1.638066   -0.817952    0.096614
C     -0.990905    0.161446   -0.881310
C     -1.235353    1.622729   -0.482701
H      3.341674    0.600524    0.950117
H      2.772377   -1.121991    0.493932
H      1.314314    1.534305    0.101590
H      0.789600   -0.991142   -1.431759
H      0.002107   -1.181197    1.509974
H     -0.163917   -2.453454    0.161297
H     -2.276023   -1.557922   -0.432628
H     -2.139296   -0.342619    0.969122
H     -2.304046    1.870773   -0.650768
H     -0.621745    2.291215   -1.121706
H     -0.995886    1.803392    0.587552
18

C     -1.513781    1.548487    0.071601
C     -1.002256    0.353244   -0.741232
C     -1.429649   -0.991748   -0.153445
C      0.031507   -1.369598    0.059733
C      0.474981   -0.043876   -0.561847
C      1.329611    0.800478    0.360202
C      2.552984    0.398436    0.715032
H     -2.598299    1.695423   -0.114828
H     -1.349006    1.405914    1.161522
H     -1.275114    0.443205   -1.816042
H     -1.926292   -1.641868   -0.906664
H     -1.990532   -0.919280    0.804766
H      0.281069   -1.469331    1.139736
H      0.336484   -2.248258   -0.549671
H      0.972975   -0.201674   -1.544874
H      0.989235    1.769094    0.709235
H      3.166023    1.022952    1.356755
H      2.950061   -0.551601    0.370033
18

C      3.002194    0.678828   -0.185160
C      1.709891    1.006738   -0.140967
C      0.635832   -0.043180   -0.291683
C      0.486416   -0.933885    0.942609
C     -0.930060   -0.412918    1.155216
C     -0.785606    0.490097   -0.069414
C     -1.752808    0.136798   -1.203168
H      3.318645   -0.351392   -0.318057
H      1.446260    2.052339   -0.018330
H      0.751250   -0.634093   -1.228672
H      1.163289   -0.666367    1.784587
H      0.503561   -2.015667    0.685987
H     -1.027652    0.167920    2.098427
H     -1.695710   -1.212901    1.046150
H     -0.836619    1.568336    0.202480
H     -2.789372    0.397826   -0.902962
H     -1.488369    0.718713   -2.110941
H     -1.711142   -0.947192   -1.446103
18

C      2.866719   -0.276728    0.726127
C      1.621160    0.139112    0.958785
C      0.561614    0.101642   -0.108772
C      0.028285   -1.305258   -0.381094
C     -1.344702   -0.890189    0.134368
C     -0.815697    0.515575    0.418287
C     -1.489888    1.601643   -0.425307
H      3.154921   -0.658389   -0.248761
H      3.603466   -0.235019    1.520461
H      0.869489    0.631789   -1.038537
H      0.015136   -1.547288   -1.466283
H      0.491403   -2.099889    0.245640
H     -1.626227   -1.430650    1.064510
H     -2.125035   -0.934232   -0.657619
H     -0.832541    0.756833    1.505619
H     -1.482649    1.336466   -1.504859
H     -0.953661    2.564096   -0.288324
H     -2.541790    1.730487   -0.094229
18

C      2.827795   -0.481418    0.019057
C      1.696656    0.138186    0.365016
C      0.399747   -0.158556   -0.349182
C     -0.193923   -1.523392    0.002853
C     -1.420874   -0.837583    0.591175
C     -0.822001    0.529441    0.269284
C     -1.646035    1.334758   -0.739808
H      3.754289   -0.249123    0.534006
H      2.837511   -1.221504   -0.775550
H      1.728541    0.881226    1.156659
H      0.480833   -0.020641   -1.450526
H      0.378328   -2.038706    0.806996
H     -1.523934   -1.011250    1.684914
H     -2.338804   -1.081257    0.013085
H     -0.604040    1.112725    1.192023
H     -1.879320    0.731716   -1.644049
H     -1.076771    2.237047   -1.047092
H     -2.597995    1.658331   -0.268850
18

C      2.722003   -0.217650    0.401747
C      1.518867    0.329558    0.591776
C      0.340731   -0.072968   -0.261919
C     -0.201275   -1.459912    0.077995
C     -1.522118   -0.845466    0.525080
C     -0.987942    0.542664    0.190352
C     -1.775180    1.195563   -0.945971
H      3.562193    0.089717    1.015846
H      2.876322   -0.972944   -0.363090
H      1.405824    1.090180    1.358930
H      0.545113    0.049275   -1.349954
H      0.332567   -1.973678    0.908789
H     -0.333602   -2.092902   -0.825510
H     -1.645515   -0.955555    1.625200
H     -0.918853    1.198237    1.087599
H     -1.878292    0.506666   -1.812548
H     -1.252346    2.116942   -1.278237
H     -2.788498    1.472273   -0.586074
18

C     -1.810823   -0.424863   -1.542098
C     -0.990457    0.357047   -0.514300
C     -1.397096    0.073676    0.931273
C     -0.023124   -0.527652    1.202910
C      0.388447   -0.258182   -0.245460
C      1.528039    0.724669   -0.365891
C      2.774758    0.371820   -0.042945
H     -1.848356   -1.508799   -1.298288
H     -2.843587   -0.020371   -1.591035
H     -0.974067    1.447091   -0.737354
H     -2.214735   -0.673344    1.038652
H     -1.570220    1.006584    1.511140
H     -0.076297   -1.614777    1.430383
H      0.549464    0.056480    1.957638
H      0.578942   -1.197222   -0.813283
H      1.349440    1.728285   -0.740975
H      3.585598    1.085682   -0.145201
H      2.994074   -0.626126    0.324844
16

C      3.024974   -0.245327    0.839657
C      1.821538   -0.173105    0.848254
C      0.350731   -0.083879    0.859819
C     -0.298618   -1.409576    0.464467
C     -0.834421   -0.777558   -0.812816
C     -0.186519    0.549297   -0.423937
C     -1.197578    1.658206   -0.131636
H      4.081282   -0.308827    0.831786
H      0.415882   -2.239361    0.261950
H     -1.112732   -1.687558    1.167842
H     -1.946552   -0.753986   -0.841628
H     -0.375597   -1.218720   -1.724614
H      0.595700    0.869005   -1.150387
H     -0.669675    2.541122    0.286182
H     -1.965415    1.320955    0.598338
H     -1.703000    1.959311   -1.073278
16

C      2.648387    0.400638    0.827443
C      1.737072   -0.163188    0.274900
C      0.622959   -0.855279   -0.402619
C     -0.239622   -1.679050    0.551875
C     -1.456660   -0.841050    0.176007
C     -0.598378    0.004850   -0.762293
C     -0.549582    1.487779   -0.363761
H      3.447794    0.896008    1.312565
H      0.975015   -1.467169   -1.260743
H      0.025309   -1.507504    1.620029
H     -1.877122   -0.285566    1.043894
H     -2.211411   -1.444864   -0.372149
H     -0.895794   -0.126399   -1.826604
H      0.220913    2.011650   -0.967537
H     -0.313760    1.611914    0.715194
H     -1.535121    1.957231   -0.566201
16

C      1.336801    1.087273    2.149335
C      1.137949    0.464135    1.136493
C      0.897244   -0.299348   -0.103378
C      0.213778   -1.639522    0.149997
C     -0.969399   -1.211080   -0.710856
C     -0.306422    0.141061   -0.951126
C     -1.161271    1.291511   -0.406052
H      1.510687    1.634413    3.038259
H      1.823013   -0.407954   -0.709786
H     -0.096241   -1.803569    1.205731
H      0.773780   -2.494840   -0.288016
H     -0.996190   -1.801430   -1.653432
H     -0.032632    0.293526   -2.019130
H     -0.573563    2.233397   -0.419277
H     -1.502246    1.086947    0.631982
H     -2.055288    1.425479   -1.050745
16

C      3.021991    0.133074    0.851496
C      1.959284   -0.015510    0.301803
C      0.664473   -0.196563   -0.369382
C     -0.089302   -1.431382    0.117362
C     -1.157473   -0.536930    0.732236
C     -0.405618    0.701971    0.246383
C     -1.188633    1.490036   -0.807954
H      3.954666    0.263431    1.334201
H      0.746048   -0.142386   -1.477872
H      0.452454   -2.032395    0.882105
H     -0.486016   -2.039630   -0.724777
H     -2.158040   -0.684310    0.267902
H     -1.168145   -0.596121    1.841747
H     -0.532717    2.271336   -1.245358
H     -2.056962    1.986487   -0.326846
H     -1.556008    0.828890   -1.623046
16

C      2.598031    0.884584    0.823278
C      1.745905    0.233926    0.271679
C      0.705021   -0.565082   -0.403817
C     -0.166217   -1.350124    0.575563
C     -1.401154   -0.595687    0.093729
C     -0.537454    0.204242   -0.881416
C     -0.560320    1.715316   -0.614412
H      3.345495    1.456034    1.307576
H      1.132304   -1.213755   -1.199624
H      0.054264   -1.149784    1.648313
H     -0.210419   -2.433309    0.327897
H     -2.123982   -1.259794   -0.428824
H     -1.864074    0.013704    0.901394
H     -0.781901   -0.028982   -1.941374
H     -0.403792    1.946724    0.461295
H     -1.531707    2.141988   -0.941256
16

C      3.071161   -0.361530    0.310717
C      1.926730   -0.420723   -0.063742
C      0.528615   -0.492347   -0.522073
C     -0.258536   -1.631082    0.124690
C     -1.178063   -0.614594    0.791389
C     -0.379444    0.527969    0.167561
C     -1.193792    1.379203   -0.811104
H      4.075625   -0.309536    0.639674
H      0.445897   -0.509312   -1.630678
H      0.332936   -2.177547    0.894154
H     -1.101154   -0.632271    1.900796
H     -2.220761   -0.701339    0.415315
H      0.133955    1.147597    0.938103
H     -0.518029    2.081602   -1.342715
H     -1.950002    1.968622   -0.251246
H     -1.715137    0.745287   -1.560842
16

C      3.035089    0.240639    0.563894
C      1.928550   -0.001505    0.151103
C      0.577152   -0.296714   -0.354142
C     -0.028535   -1.551044    0.269770
C     -1.123116   -0.711947    0.918685
C     -0.506769    0.550367    0.315737
C     -1.422245    1.271033   -0.678868
H      4.006285    0.453191    0.926481
H      0.534051   -0.307624   -1.465902
H      0.613940   -2.040620    1.034710
H     -0.427553   -2.255072   -0.493229
H     -2.112815   -0.956039    0.471661
H     -0.126930    1.231570    1.110104
H     -0.856928    2.084122   -1.180775
H     -2.282195    1.717940   -0.137140
H     -1.807981    0.571703   -1.452086
16

C      2.979363   -0.204508    0.819856
C      1.923062   -0.215147    0.238843
C      0.633085   -0.227824   -0.471565
C     -0.293372   -1.345885    0.004539
C     -1.278657   -0.310276    0.535195
C     -0.352443    0.812451    0.068050
C     -0.962271    1.689622   -1.026946
H      3.906414   -0.195156    1.330109
H      0.759532   -0.216537   -1.576980
H      0.128850   -1.981090    0.815561
H     -0.715052   -1.931288   -0.841659
H     -2.257037   -0.346388    0.006423
H     -1.371499   -0.346506    1.642711
H      0.040130    1.415953    0.917781
H     -1.768225    2.323391   -0.601076
H     -1.371881    1.079189   -1.860841
20

C      2.612455   -1.074651    0.873562
C      1.160657   -0.839258    0.485144
C      0.977986    0.611641    0.009046
C      0.235494    1.536016    0.970456
C     -0.430349    1.108203   -0.333594
C     -1.647752    0.185949   -0.151886
C     -1.949136   -0.560727   -1.446060
H      3.277562   -0.939485   -0.006102
H      2.738128   -2.105249    1.267593
H      0.894929   -1.532893   -0.339868
H      0.532456   -1.078775    1.368392
H      1.780352    1.093617   -0.590654
H      0.607678    2.582186    0.966044
H     -0.165193    1.065605    1.894184
H     -0.486427    1.922291   -1.088031
H     -1.524795   -0.544655    0.672895
H     -2.524974    0.818236    0.102618
H     -1.091303   -1.204578   -1.731788
H     -2.844185   -1.202728   -1.305741
H     -2.153580    0.159256   -2.267117
20

C      2.953175    0.014023    0.920732
C      1.437922   -0.095718    0.832699
C      0.965858   -0.045946   -0.629735
C      0.053520    1.119817   -1.003565
C     -0.521487   -0.288474   -0.895297
C     -1.448355   -0.538062    0.307621
C     -2.907809   -0.441243   -0.120344
H      3.293059    0.983425    0.497859
H      3.265530   -0.045189    1.984090
H      3.429340   -0.820795    0.364465
H      0.979005    0.698583    1.459814
H      1.630855   -0.418589   -1.438869
H     -0.215032    1.818157   -0.182340
H      0.180419    1.473853   -2.048157
H     -0.739749   -0.786741   -1.864664
H     -1.255882   -1.559762    0.698785
H     -1.278599    0.185931    1.132799
H     -3.130845   -1.194562   -0.905896
H     -3.566066   -0.633435    0.753071
H     -3.124859    0.574726   -0.513974
20

C      2.804458   -0.374314    0.539867
C      1.974214    0.772377   -0.022412
C      0.550119    0.720796    0.550358
C     -0.453784    1.484111   -0.311703
C     -0.423105   -0.036159   -0.348358
C     -1.545291   -0.737240    0.422644
C     -2.772689   -0.915080   -0.463283
H      3.840647   -0.312851    0.145429
H      2.841208   -0.316235    1.648822
H      2.365477   -1.349335    0.238236
H      2.439648    1.734033    0.281521
H      1.995554    0.721848   -1.134296
H     -1.291076    1.930571    0.265095
H     -0.050904    1.969477   -1.226613
H     -0.012396   -0.497097   -1.273317
H     -1.182506   -1.737488    0.741738
H     -1.833977   -0.171987    1.336930
H     -3.567819   -1.443381    0.103814
H     -3.161741    0.074763   -0.784114
H     -2.516040   -1.516810   -1.361264
20

C     -2.498819   -0.231538    0.493891
C     -1.511507    0.922070    0.361399
C     -0.691780    0.782521   -0.933703
C      0.609310    1.583273   -0.962161
C      0.651387    0.055151   -0.929553
C      1.155257   -0.584753    0.377884
C      2.566773   -1.127797    0.188439
H     -3.187140   -0.251283   -0.377939
H     -3.100305   -0.102640    1.418315
H     -1.958794   -1.199503    0.553517
H     -2.084682    1.872064    0.306602
H     -0.885306    0.973486    1.274666
H     -1.227251    0.793230   -1.906712
H      0.841904    2.034161    0.026267
H      0.898995   -0.426122   -1.899756
H      0.485552   -1.427950    0.648040
H      1.177286    0.130584    1.226449
H      3.260819   -0.304154   -0.084026
H      2.918084   -1.591902    1.134154
H      2.580218   -1.898898   -0.611333
20

C      2.591041    1.030773    1.100139
C      2.119232   -0.330108    0.613277
C      1.019346   -0.152802   -0.437777
C      0.124854   -1.372477   -0.634797
C     -0.408076   -0.145805    0.098893
C     -1.386600    0.726904   -0.696348
C     -2.818221    0.247469   -0.488723
H      1.765351    1.563539    1.618551
H      3.443181    0.908617    1.801441
H      2.975143   -0.858903    0.143473
H      1.775395   -0.930794    1.484484
H      1.226488    0.424095   -1.365486
H      0.332153   -2.239216    0.028610
H     -0.241378   -1.506662   -1.675043
H     -0.527859   -0.253956    1.198930
H     -1.300040    1.773615   -0.334837
H     -1.157464    0.721529   -1.785166
H     -3.086586    0.289496    0.588560
H     -3.515489    0.900278   -1.054903
H     -2.930472   -0.795592   -0.854185
20

C      2.591110    0.142224    1.337825
C      2.102136   -0.653088    0.135941
C      0.937684    0.054833   -0.548142
C      0.050568   -0.876677   -1.364246
C     -0.435060   -0.342049   -0.021979
C     -1.492114    0.766497   -0.093412
C     -2.892868    0.166592   -0.113794
H      2.950046    1.143688    1.017827
H      1.769542    0.262013    2.075380
H      3.427622   -0.402395    1.822778
H      2.932310   -0.789766   -0.589285
H      1.062878    1.075395   -0.971102
H     -0.402582   -0.405049   -2.262299
H      0.332795   -1.951383   -1.344415
H     -0.451116   -1.075893    0.813504
H     -1.388352    1.411655    0.804833
H     -1.360238    1.408700   -0.992439
H     -3.064985   -0.442185    0.799501
H     -3.646552    0.981377   -0.145654
H     -3.022825   -0.474487   -1.011728
20

C     -2.741184   -0.072419   -0.668895
C     -2.025740    0.485716    0.555489
C     -0.579052    0.847887    0.209259
C      0.347417    0.849923    1.419139
C      0.436855   -0.270099    0.384006
C      1.632216   -0.208282   -0.576123
C      2.833701   -0.931236    0.020780
H     -2.739216    0.675293   -1.490671
H     -3.793517   -0.312399   -0.408277
H     -2.239504   -1.000626   -1.016801
H     -2.550545    1.404650    0.893377
H     -2.078560   -0.260586    1.379575
H     -0.367013    1.639438   -0.542741
H      1.149073    1.606949    1.281489
H      0.037061   -1.254381    0.710048
H      1.921396    0.839015   -0.815584
H      1.346544   -0.707258   -1.526522
H      3.145309   -0.440867    0.967633
H      3.682383   -0.896462   -0.694404
H      2.582376   -1.994258    0.223665
18

C      2.976983    0.825512   -0.682235
C      1.852163    0.161312   -0.950009
C      1.256736   -0.794729    0.048952
C      0.656093   -0.119152    1.279556
C     -0.260003   -0.773580    0.252975
C     -1.100615    0.203014   -0.588026
C     -2.475531    0.395855    0.040414
H      3.479395    0.721003    0.274722
H      1.399508    0.269521   -1.929951
H      1.778385   -1.750595    0.267834
H      0.769476   -0.702607    2.217437
H      0.670547    0.992731    1.278017
H     -0.699036   -1.745992    0.563799
H     -1.227296   -0.223729   -1.605683
H     -0.616313    1.198781   -0.688909
H     -3.076211    1.091118   -0.583145
H     -2.374117    0.827412    1.059077
H     -3.010164   -0.575875    0.105185
18

C      2.961181   -0.046308   -0.991356
C      1.634854   -0.168288   -1.031563
C      0.901510   -1.046239   -0.058128
C      0.535462   -0.357366    1.251628
C     -0.555913   -0.695201    0.241041
C     -1.177694    0.512118   -0.482980
C     -2.446869    0.961949    0.230712
H      3.462771    0.595382   -1.707020
H      3.548807   -0.579694   -0.250122
H      1.170926   -2.120357    0.030729
H      0.814918    0.716365    1.325979
H      0.555434   -1.029076    2.135465
H     -1.196228   -1.563181    0.508784
H     -1.436045    0.209047   -1.519921
H     -0.480008    1.376011   -0.540124
H     -2.892290    1.824219   -0.308847
H     -2.211452    1.274749    1.270419
H     -3.189364    0.135869    0.255314
18

C      3.319048   -0.315614   -0.018494
C      2.104291   -0.791937   -0.300205
C      0.965516    0.133785   -0.627281
C      0.462432    0.874838    0.612339
C     -0.321999   -0.303151    0.064406
C     -1.590111    0.056700   -0.715769
C     -2.777437    0.200203    0.229199
H      3.504057    0.753873    0.017291
H      4.138163   -0.999179    0.179696
H      1.956758   -1.866130   -0.366341
H      0.035623    1.876426    0.393721
H      0.991210    0.659634    1.566423
H     -0.287600   -1.233437    0.674012
H     -1.802093   -0.758477   -1.439949
H     -1.466300    1.000661   -1.292330
H     -3.691226    0.439065   -0.354644
H     -2.594009    1.020854    0.955113
H     -2.946322   -0.748115    0.782826
18

C      2.917440    0.247268   -0.430140
C      1.718878   -0.293355   -0.659340
C      0.966452   -1.005674    0.434158
C      0.427714   -0.092780    1.536838
C     -0.534729   -0.759633    0.557800
C     -1.214904    0.181033   -0.453955
C     -2.561850    0.651409    0.081858
H      3.364358    0.212947    0.558935
H      3.458870    0.730299   -1.236968
H      1.310632   -0.272239   -1.665169
H      1.341093   -1.981165    0.808754
H      0.585310    0.982340    1.300418
H     -1.106373   -1.613801    0.978757
H     -1.380123   -0.377268   -1.399904
H     -0.595929    1.074765   -0.686386
H     -3.048521    1.314919   -0.663761
H     -2.421472    1.219043    1.026453
H     -3.226847   -0.218110    0.271663
18

C      3.283823   -0.337045   -0.295341
C      2.071972   -0.125928   -0.812459
C      0.836567   -0.532772   -0.066969
C      0.408682    0.452229    1.009245
C     -0.351133    0.389290   -0.314027
C     -1.691626   -0.352205   -0.204247
C     -2.817772    0.639029    0.059532
H      4.169818   -0.052265   -0.853347
H      3.400302   -0.791914    0.683892
H      1.982263    0.315897   -1.800730
H      0.639347   -1.605093    0.150946
H      1.045185    1.357075    1.110803
H     -0.088165   -0.013524    1.887227
H     -1.886841   -0.866631   -1.169186
H     -1.694707   -1.124644    0.597398
H     -2.867727    1.391993   -0.755982
H     -2.653135    1.157724    1.028087
H     -3.786853    0.098785    0.105170
18

C      2.830940    0.606871   -0.264893
C      1.686807    0.143999   -0.772976
C      0.923629   -0.958519   -0.088482
C      0.264170   -0.541122    1.224004
C     -0.598395   -0.831796    0.002577
C     -1.265139    0.399160   -0.633151
C     -2.701555    0.546529   -0.152902
H      3.222201    0.219304    0.671022
H      3.383278    1.381353   -0.786940
H      1.335165    0.527556   -1.725952
H      1.342815   -1.987033   -0.076375
H      0.369116    0.530946    1.499977
H      0.238670   -1.341693    1.992980
H     -1.141544   -1.800934    0.023262
H     -0.711702    1.343454   -0.437165
H     -3.167917    1.422401   -0.650017
H     -2.724535    0.700987    0.946935
H     -3.286005   -0.361464   -0.411894
18

C      2.649586   -0.753435   -0.738080
C      1.330595    0.001268   -0.817975
C      0.812413    0.326449    0.593688
C     -0.172595   -0.683533    1.168983
C     -0.661238    0.704408    0.761107
C     -1.535030    0.714433   -0.464824
C     -2.769811    0.208688   -0.433713
H      3.421144   -0.144457   -0.220339
H      2.514515   -1.721962   -0.210927
H      1.497880    0.952500   -1.365471
H      0.612912   -0.612842   -1.403452
H      1.497218    0.793031    1.334163
H     -0.080126   -0.826951    2.266151
H     -0.462692   -1.517648    0.493259
H     -0.915402    1.363630    1.618123
H     -1.180943    1.195065   -1.371688
H     -3.161612   -0.249862    0.469306
H     -3.396813    0.251220   -1.318299
18

C      3.558277    0.240928    0.081508
C      2.349639    0.801784    0.126728
C      1.154075    0.110175   -0.461816
C      0.595221   -1.011351    0.408277
C     -0.144369    0.317134    0.308632
C     -1.411933    0.302811   -0.554524
C     -2.624952   -0.079063    0.285431
H      3.708876   -0.738918   -0.361740
H      2.242758    1.791410    0.559032
H      1.093892   -0.068514   -1.557153
H      0.150840   -1.853874   -0.163503
H      1.105691   -1.168482    1.382976
H     -0.092976    0.963299    1.212385
H     -1.324976   -0.405667   -1.408111
H     -1.567121    1.320797   -0.970935
H     -3.536235   -0.066064   -0.348861
H     -2.760376    0.643815    1.118154
H     -2.496334   -1.100221    0.703530
18

C      2.500193   -1.854787   -0.208413
C      2.231421   -0.566299   -0.424962
C      1.150916    0.127582    0.348639
C      0.674046    1.411578   -0.318370
C     -0.198567    0.159436   -0.347962
C     -1.408961    0.157570    0.595252
C     -2.618416    0.785007   -0.087504
H      3.283096   -2.349132   -0.774273
H      1.943276   -2.423934    0.530125
H      2.802393   -0.021238   -1.171772
H      1.184932    0.159449    1.459664
H      0.334127    2.135746    0.452862
H     -0.258003   -0.354908   -1.331737
H     -1.648847   -0.894605    0.858301
H     -1.201488    0.705464    1.541096
H     -2.873975    0.223535   -1.011503
H     -2.405644    1.843587   -0.348647
H     -3.490499    0.755950    0.599216
18

C      3.117184   -0.680333   -0.536226
C      1.823576   -0.881085   -0.795133
C      0.776576   -0.599229    0.243466
C      0.454322    0.882391    0.412267
C     -0.528423   -0.035036   -0.304076
C     -1.776438   -0.415113    0.499658
C     -2.898714    0.586881    0.270442
H      3.863871   -0.907878   -1.289971
H      3.438889   -0.288327    0.424071
H      1.529104   -1.293221   -1.755855
H      0.741710   -1.197676    1.179407
H      0.995842    1.576557   -0.266144
H      0.173657    1.173270    1.447151
H     -0.593930    0.096929   -1.406241
H     -1.572172   -0.512913    1.589003
H     -3.151719    0.636224   -0.809703
H     -2.593361    1.594071    0.625802
H     -3.799976    0.264487    0.832093
18

C      2.800900   -0.190691    0.517506
C      1.855756   -0.547929   -0.620260
C      0.576591    0.293076   -0.536569
C     -0.624257   -0.298593   -1.263659
C     -0.563808   -0.329268    0.260188
C     -1.469033    0.662883    0.930570
C     -2.778850    0.431728    1.037847
H      3.085804    0.882090    0.469977
H      2.332827   -0.414880    1.499781
H      2.361333   -0.335630   -1.585655
H      1.642028   -1.638470   -0.577107
H      0.636689    1.403082   -0.571388
H     -1.305698    0.461513   -1.703435
H     -0.460774   -1.287109   -1.743825
H     -0.403056   -1.333264    0.708838
H     -1.047505    1.561881    1.370713
H     -3.417609    1.148958    1.542840
H     -3.221337   -0.469377    0.623650
16

C      3.191837    1.167229    0.143582
C      2.075396    0.865098    0.484309
C      0.713889    0.499737    0.900243
C      0.617223   -0.989014    1.226676
C      0.085508   -0.468039   -0.096212
C     -1.441521   -0.383328   -0.181058
C     -1.859465    0.543595   -1.316234
H      4.171751    1.432056   -0.155688
H      1.556870   -1.577997    1.139495
H     -0.152294   -1.229668    1.990580
H      0.678163   -0.771986   -0.988170
H     -1.885823   -0.011191    0.769282
H     -1.845031   -1.399740   -0.376534
H     -2.967552    0.585742   -1.374002
H     -1.472433    1.569342   -1.136356
H     -1.466520    0.168163   -2.285274
16

C      2.962338    0.636604    0.359686
C      2.154335   -0.226128    0.122140
C      1.169868   -1.282000   -0.169588
C      0.148157   -1.507843    0.943283
C     -0.282776   -0.864207   -0.373087
C     -0.631558    0.634766   -0.307755
C     -2.129997    0.821794   -0.102439
H      3.670973    1.394305    0.568349
H      1.496664   -2.207787   -0.686846
H      0.245629   -0.759878    1.760903
H     -0.859403   -1.530069   -1.049733
H     -0.094833    1.161334    0.511020
H     -0.338550    1.108074   -1.269003
H     -2.369840    1.905595   -0.072853
H     -2.445719    0.360266    0.857502
H     -2.695286    0.355173   -0.937293
16

C      2.855214    0.892082    0.083457
C      2.087965    0.009415   -0.209574
C      1.152969   -1.070449   -0.569446
C      0.283603   -1.532601    0.588392
C     -0.349478   -0.762803   -0.569954
C     -0.736635    0.682924   -0.203561
C     -2.243109    0.778223   -0.003273
H      3.528050    1.667222    0.340923
H      1.494060   -1.886179   -1.240328
H      0.407588   -0.981284    1.546532
H      0.057044   -2.618945    0.571274
H     -0.233569    1.050765    0.717737
H     -0.446191    1.351061   -1.042400
H     -2.522542    1.826652    0.233143
H     -2.775646    0.467581   -0.927634
H     -2.559323    0.126338    0.839000
16

C      2.758540    1.148449    0.714084
C      2.106103    0.241858    0.260252
C      1.311221   -0.866080   -0.294963
C      0.228784   -1.367978    0.651911
C     -0.160424   -0.589266   -0.597471
C     -0.674592    0.824408   -0.316904
C     -2.175959    0.821638   -0.066862
H      3.330743    1.944476    1.112554
H      1.809203   -1.655402   -0.896329
H      0.030458   -2.458145    0.579965
H      0.121926   -0.813536    1.610897
H     -0.603022   -1.194835   -1.417210
H     -0.437627    1.482865   -1.179396
H     -2.514620    1.857037    0.144829
H     -2.715258    0.441409   -0.960536
H     -2.415476    0.183101    0.809467
16

C      2.788347    1.054523    0.018627
C      2.002638    0.164293   -0.190558
C      1.045950   -0.924219   -0.447822
C      0.180006   -1.273387    0.757479
C     -0.443327   -0.576073   -0.446639
C     -0.848415    0.891762   -0.222599
C     -2.321711    0.984802    0.146570
H      3.477415    1.836325    0.202474
H      1.358080   -1.793767   -1.063604
H      0.323974   -0.641939    1.661756
H     -0.077359   -2.350814    0.834034
H     -1.068681   -1.223466   -1.098457
H     -0.680534    1.456753   -1.163479
H     -0.256568    1.378419    0.582197
H     -2.521717    0.443416    1.095828
H     -2.958099    0.573373   -0.665808
16

C      3.578607   -0.564655   -0.776523
C      2.558956   -0.348318   -0.170659
C      1.319743   -0.087109    0.567484
C      0.731253    1.277151    0.238979
C      0.079637    0.007725   -0.303821
C     -1.223618   -0.425332    0.381219
C     -2.421581    0.252907   -0.272820
H      4.473515   -0.754476   -1.308545
H      1.216930   -0.411112    1.625594
H      0.188087    1.677568    1.121855
H      0.221721   -0.169284   -1.392342
H     -1.221731   -0.188999    1.468449
H     -1.329342   -1.525792    0.273562
H     -2.344179    1.355921   -0.165754
H     -3.356914   -0.087844    0.219136
H     -2.471085   -0.008350   -1.351524
16

C      3.277668    1.378314   -0.167274
C      2.347586    0.629159   -0.332013
C      1.215143   -0.283492   -0.534217
C      0.669848   -0.882603    0.754929
C     -0.100042    0.219559    0.040491
C     -1.327319   -0.266212   -0.723471
C     -2.562971   -0.257416    0.165277
H      4.093968    2.036029   -0.022428
H      1.177861   -0.942597   -1.428108
H      1.161549   -0.549498    1.694723
H      0.252632   -1.906247    0.639912
H     -0.091282    1.218570    0.529849
H     -1.495034    0.384130   -1.608185
H     -2.776531    0.773708    0.519269
H     -3.434386   -0.626966   -0.414073
H     -2.408688   -0.924436    1.039608
16

C      3.512650   -0.073464   -0.175412
C      2.345905   -0.368365   -0.247192
C      0.925031   -0.728234   -0.336049
C      0.214241   -0.763405    1.011317
C     -0.028213    0.394914    0.050224
C     -1.373562    0.372721   -0.681930
C     -2.421293    1.112115    0.135324
H      4.536764    0.185575   -0.112190
H      0.583220   -1.476200   -1.083063
H      0.831425   -0.491445    1.895090
H     -0.602821   -1.513402    1.076223
H      0.431855    1.365373    0.340704
H     -1.251573    0.888871   -1.657383
H     -1.727275   -0.663441   -0.880332
H     -2.602844    0.587148    1.097380
H     -3.373511    1.171239   -0.432711
16

C      2.440342    0.220749   -1.380989
C      1.724068   -0.475079   -0.498567
C      1.088666    0.209399    0.683008
C      0.003871   -0.611542    1.368977
C     -0.378697    0.624338    0.561079
C     -1.093524    0.313443   -0.727778
C     -2.350029   -0.136616   -0.725124
H      2.581096    1.292115   -1.273511
H      1.609435   -1.544603   -0.644416
H      1.718262    0.803719    1.379063
H     -0.245658   -1.587959    0.897899
H     -0.050483   -0.463792    2.468243
H     -0.707651    1.487670    1.177499
H     -0.603871    0.513542   -1.675871
H     -2.875264   -0.317133    0.208021
H     -2.860562   -0.328251   -1.663247
16

C      2.428833   -0.275490    1.116940
C      1.716871    0.405063    0.219514
C      0.916212   -0.301676   -0.836649
C     -0.132447    0.590500   -1.483992
C     -0.568604   -0.545596   -0.564083
C     -1.126501   -0.082766    0.756149
C     -2.324104    0.501919    0.828725
H      2.446464   -1.361210    1.108594
H      2.997015    0.260313    1.868989
H      1.419620   -0.997645   -1.541075
H     -0.298281    0.385867   -2.562826
H     -0.224682    1.615774   -1.061088
H     -1.039803   -1.402746   -1.090174
H     -0.575926   -0.279644    1.670940
H     -2.910442    0.684053   -0.066964
H     -2.724227    0.803284    1.791287
16

C      2.529098   -0.416513   -0.662249
C      1.443310   -0.730040    0.048614
C      0.746457    0.298574    0.896512
C      0.065567    1.371910    0.059366
C     -0.778120    0.373381    0.838853
C     -1.506390   -0.585138   -0.063056
C     -2.500222   -0.169560   -0.851810
H      3.038149   -1.179759   -1.241759
H      2.916256    0.598030   -0.671160
H      1.103146   -1.760436    0.065374
H      1.246501    0.688616    1.808790
H      0.093032    2.344373    0.596075
H     -1.304964    0.813831    1.712271
H     -1.270409   -1.643697   -0.025208
H     -3.036407   -0.881387   -1.470941
H     -2.785005    0.877817   -0.885386
16

C      2.886964    0.860354    0.591633
C      2.267056   -0.246665    0.182662
C      0.942795   -0.173168   -0.520239
C      0.002546   -1.334383   -0.226258
C     -0.244983    0.026669    0.412959
C     -1.392274    0.786052   -0.187849
C     -2.653803    0.476051    0.117257
H      2.443781    1.841029    0.446065
H      2.750687   -1.207091    0.329100
H      0.871376    0.268478   -1.537933
H     -0.666134   -1.598392   -1.073950
H      0.386068   -2.101275    0.480790
H     -0.050427    0.075835    1.506517
H     -1.193287    1.625718   -0.847340
H     -3.472029    1.047065   -0.309231
H     -2.878335   -0.346277    0.790105
16

C      3.009164   -0.005729    0.248746
C      1.831461   -0.620700    0.124602
C      0.559049    0.058553    0.543863
C      0.030509    1.086360   -0.452186
C     -0.647706   -0.269769   -0.317885
C     -1.964364   -0.189783    0.394131
C     -3.054594    0.263858   -0.227835
H      3.921908   -0.516301   -0.040525
H      3.070900    1.006756    0.636559
H      1.798111   -1.640375   -0.247947
H      0.382352    0.311120    1.611393
H      0.636258    1.110938   -1.384442
H     -0.517511   -0.949223   -1.188645
H     -2.043302   -0.546814    1.416897
H     -4.004917    0.295240    0.295049
H     -3.007316    0.605869   -1.257486
14

C      2.002147    1.737594    0.271734
C      1.597342    0.637035   -0.008539
C      1.104602   -0.704347   -0.352594
C      0.651189   -1.475005    0.876756
C     -0.377537   -0.984206   -0.132230
C     -1.226507    0.134888    0.405232
C     -1.963977    0.881691   -0.417853
H      2.356861    2.703725    0.517958
H      1.637165   -1.312048   -1.114497
H      0.835848   -2.560814    0.730334
H     -0.842439   -1.791978   -0.737519
H     -1.237593    0.348426    1.470770
H     -2.569668    1.690322   -0.021960
H     -1.967432    0.694718   -1.487593
14

C     -1.345070    2.045061   -0.874985
C     -1.178186    1.083231   -0.167481
C     -0.974960   -0.090261    0.698506
C     -0.990074   -1.413466   -0.056195
C      0.318725   -0.881959    0.511743
C      1.277799   -0.413961   -0.546259
C      2.276529    0.418040   -0.253464
H     -1.491006    2.889151   -1.496312
H     -1.438383   -0.118786    1.706974
H     -1.103088   -1.340784   -1.161208
H     -1.423622   -2.257156    0.521308
H      0.696104   -1.440772    1.394530
H      2.953382    0.740418   -1.036675
H      2.421851    0.781241    0.759519
14

C     -1.204172    2.111406   -0.058135
C     -1.199286    0.803677    0.190383
C     -0.684198   -0.153232   -0.849738
C     -0.324541   -1.533032   -0.309811
C      0.779949   -0.582690   -0.753245
C      1.570599   -0.039804    0.364232
C      2.218942    0.404978    1.278199
H     -1.574046    2.811523    0.683750
H     -1.571154    0.438218    1.143463
H     -1.138466   -0.162437   -1.863517
H     -0.428836   -1.672275    0.789293
H     -0.516946   -2.362238   -1.022975
H      1.284718   -0.859741   -1.702479
H      2.787437    0.795648    2.080711
14

C      3.219051    0.987719   -0.765968
C      2.257207    0.388002   -0.355128
C      1.088757   -0.343090    0.143325
C      0.348901    0.423009    1.227581
C     -0.240714    0.315209   -0.176311
C     -1.397545   -0.635467   -0.296196
C     -2.619242   -0.281907    0.107606
H      4.063192    1.514314   -1.126608
H      1.128547   -1.445925    0.277195
H     -0.126390   -0.293085    1.933295
H     -0.226218    1.259349   -0.762611
H     -1.247194   -1.609095   -0.753474
H     -2.799288    0.693261    0.550267
H     -3.449064   -0.972294   -0.002973
12

C      2.287994    0.327206    0.643689
C      1.440551   -0.320611    0.081746
C      0.405549   -1.114378   -0.604977
C     -0.311863   -0.364106   -1.723470
C     -1.046984   -0.687581   -0.425936
C     -1.314049    0.488829    0.421186
C     -1.533877    1.450349    1.114554
H      3.031359    0.896292    1.137049
H      0.583843   -2.189893   -0.811858
H     -0.003888    0.705199   -1.773832
H     -1.812493   -1.485781   -0.516486
H     -1.726140    2.294474    1.723111
12

C      2.921715   -1.013509    0.237775
C      1.864235   -0.556090   -0.117366
C      0.579686    0.002160   -0.549615
C     -0.453802   -1.078268   -0.825887
C     -0.556975   -0.218858    0.429780
C     -1.602711    0.811803    0.376497
C     -2.460817    1.657583    0.334231
H      3.849811   -1.415160    0.549640
H      0.547376    0.882151   -1.228568
H     -1.148567   -0.736939   -1.624764
H     -0.325968   -0.734929    1.386170
H     -3.213984    2.400057    0.296885
20

C      2.755955   -0.301248   -0.141797
C      1.551538   -0.315326    0.795002
C      0.219280   -0.411469    0.035605
C     -0.959382   -0.559287    0.987606
C     -2.163126   -0.021774    0.227081
C     -1.617326    0.921755   -0.843438
C     -0.095929    0.847124   -0.765822
H      2.772441   -1.220592   -0.764897
H      2.724863    0.592220   -0.799306
H      3.687303   -0.260076    0.460347
H      1.649366   -1.172026    1.497061
H      0.236424   -1.290466   -0.648963
H     -0.801067    0.057043    1.901549
H     -1.108753   -1.620388    1.284270
H     -2.707803   -0.863515   -0.254958
H     -2.858106    0.509339    0.913515
H     -1.964532    1.963074   -0.665342
H     -1.964612    0.596714   -1.848896
H      0.288369    1.749369   -0.238578
H      0.355097    0.799527   -1.780947
20

C      2.589945   -0.153063    0.747907
C      1.553974    0.614452   -0.072147
C      0.267868   -0.201639   -0.285171
C     -0.513044   -0.382739    1.012386
C     -1.991842   -0.265280    0.667213
C     -2.074286    0.001694   -0.829916
C     -0.698141    0.494868   -1.236951
H      2.845605   -1.111491    0.247985
H      3.514020    0.455565    0.840497
H      2.203350   -0.362141    1.767632
H      1.319266    1.573083    0.441055
H      2.000910    0.855028   -1.061549
H      0.518338   -1.201981   -0.707033
H     -0.280019   -1.360343    1.488113
H     -2.541127   -1.194688    0.932950
H     -2.422503    0.588839    1.232023
H     -2.858896    0.752729   -1.066798
H     -2.301861   -0.946054   -1.366502
H     -0.655589    1.599753   -1.105729
H     -0.475967    0.243408   -2.296870
20

C      2.515837   -0.609623    0.315280
C      1.502026    0.469732   -0.060587
C      0.124375   -0.127211   -0.407750
C     -0.580930   -0.761751    0.787929
C     -2.069311   -0.656360    0.491778
C     -2.236489    0.380017   -0.612205
C     -0.849344    0.933709   -0.905978
H      2.624550   -1.342890   -0.511952
H      3.503991   -0.139895    0.504479
H      2.197280   -1.139866    1.237306
H      1.410653    1.193865    0.778570
H      1.890828    1.020779   -0.944654
H      0.243638   -0.894839   -1.206784
H     -0.351885   -0.204742    1.723846
H     -0.287558   -1.826011    0.909472
H     -2.638804   -0.375284    1.404454
H     -2.930902    1.191213   -0.302561
H     -2.642849   -0.124779   -1.514588
H     -0.711648    1.885370   -0.344826
H     -0.713458    1.128566   -1.992135
18

C      2.735772   -0.944612   -0.075716
C      1.860350    0.027681    0.195458
C      0.458117   -0.002440   -0.363889
C     -0.370126   -1.151211    0.196136
C     -1.819198   -0.686688    0.122145
C     -1.795943    0.825495   -0.097505
C     -0.337036    1.250316   -0.022893
H      2.456433   -1.789491   -0.698062
H      3.742333   -0.897495    0.326964
H      2.183150    0.862874    0.811079
H      0.506131   -0.106050   -1.471290
H     -0.103070   -1.338981    1.260848
H     -2.359198   -0.941963    1.060144
H     -2.321727   -1.191070   -0.730876
H     -2.400905    1.352590    0.672212
H     -2.205142    1.066107   -1.103606
H     -0.117448    2.075543   -0.734868
H     -0.112493    1.589394    1.013729
18

C      2.695654   -0.616126   -0.073417
C      1.735629    0.272408    0.198724
C      0.324839    0.080979   -0.305483
C     -0.369374   -1.117016    0.335747
C     -1.855142   -0.783104    0.355347
C     -1.986850    0.696450    0.012773
C     -0.576703    1.264941    0.016737
H      2.482924   -1.506904   -0.656795
H      3.705471   -0.453128    0.288815
H      1.993101    1.157942    0.773409
H      0.345460   -0.056768   -1.410907
H     -0.032301   -1.254611    1.386602
H     -0.171782   -2.049079   -0.237311
H     -2.410554   -1.403633   -0.381653
H     -2.627623    1.210923    0.759924
H     -2.435512    0.812310   -0.998624
H     -0.464509    2.076899   -0.734428
H     -0.352729    1.667517    1.030552
16

C      2.862103   -0.170001   -1.069848
C      1.895759   -0.309789   -0.362364
C      0.718450   -0.479548    0.500520
C     -0.322687   -1.311840   -0.238606
C     -1.584869   -0.470699   -0.337733
C     -1.143793    0.962701   -0.108611
C      0.059596    0.865848    0.812131
H      3.710065   -0.047128   -1.690916
H      1.030121   -0.984401    1.441006
H     -0.521363   -2.276998    0.276479
H     -2.059436   -0.592700   -1.334246
H     -2.302157   -0.773266    0.457003
H     -0.836910    1.418766   -1.075992
H     -1.956167    1.570983    0.344834
H      0.743145    1.733161    0.672713
H     -0.291855    0.864909    1.867919
16

C      2.793358    0.006633   -0.082302
C      1.668983   -0.324183    0.200604
C      0.293357   -0.728347    0.546360
C     -0.481674   -1.138102   -0.702078
C     -1.211706    0.107268   -1.188467
C     -1.123346    1.143975   -0.074484
C     -0.487175    0.447081    1.120250
H      3.780057    0.297271   -0.330839
H      0.339839   -1.565713    1.276171
H     -1.243269   -1.899671   -0.428116
H      0.171371   -1.565895   -1.495411
H     -0.742448    0.498164   -2.117857
H     -2.135678    1.524031    0.178934
H     -0.483031    1.994201   -0.397872
H      0.151054    1.143764    1.708446
H     -1.289692    0.059522    1.786663
18

C      2.604045   -0.877320   -0.089006
C      1.667021    0.271921   -0.315642
C      0.343832    0.173353   -0.106269
C     -0.344394   -1.064059    0.356844
C     -1.824762   -0.739448    0.224730
C     -1.939709    0.784252    0.159107
C     -0.596795    1.301821   -0.342361
H      2.322569   -1.731365   -0.740519
H      2.567897   -1.193238    0.974872
H      3.641530   -0.567909   -0.334121
H      2.081558    1.213843   -0.664512
H     -0.082517   -1.250311    1.420958
H     -2.407957   -1.153205    1.075786
H     -2.200555   -1.182098   -0.722875
H     -2.133151    1.182189    1.179903
H     -2.768439    1.096042   -0.512938
H     -0.644476    1.529832   -1.429318
H     -0.285697    2.205699    0.225372
18

C      2.539968   -0.313377    0.209780
C      1.427396   -0.063109   -0.764994
C      0.143551    0.057061   -0.383644
C     -0.962117    0.293655   -1.350692
C     -2.232870    0.173383   -0.520812
C     -1.816842    0.324688    0.941240
C     -0.339067   -0.038610    1.023765
H      2.360533   -1.262455    0.757437
H      3.503319   -0.393824   -0.335798
H      2.610027    0.526801    0.932100
H      1.677445    0.017939   -1.819372
H     -0.881610    1.316614   -1.775379
H     -0.950267   -0.462842   -2.165411
H     -2.678898   -0.834587   -0.672045
H     -2.429870   -0.323726    1.604110
H     -1.959790    1.385580    1.240520
H      0.200292    0.675019    1.683499
H     -0.211200   -1.078210    1.395698
18

C      2.542795   -0.009232   -0.035083
C      1.257810   -0.378003   -0.771394
C      0.034392   -0.390423    0.159125
C     -1.217070   -0.936201   -0.548876
C     -2.301481   -0.009389   -0.132695
C     -1.836199    1.046194    0.511971
C     -0.356385    1.017049    0.642094
H      2.746826   -0.740328    0.775845
H      2.464909    1.009905    0.397246
H      3.390986   -0.022700   -0.750647
H      1.386846   -1.377427   -1.241422
H      0.246547   -1.033928    1.043594
H     -1.444916   -1.972641   -0.219376
H     -1.121260   -0.903798   -1.656393
H     -3.350539   -0.151185   -0.370969
H     -2.463429    1.861385    0.857573
H      0.075963    1.814945   -0.000474
H     -0.055794    1.175778    1.699893
18

C      2.418703   -0.376583   -0.356805
C      1.280946    0.585663   -0.017702
C      0.006530   -0.157740    0.419120
C     -0.613641   -0.937575   -0.748202
C     -2.043831   -0.538748   -0.745451
C     -2.300903    0.402784    0.143969
C     -1.089906    0.811159    0.900753
H      2.655954   -1.018004    0.518498
H      3.326173    0.203335   -0.627200
H      2.142634   -1.019417   -1.219131
H      1.065973    1.225073   -0.902221
H      1.619315    1.246314    0.810300
H      0.250683   -0.861483    1.247509
H     -0.521965   -2.033073   -0.586579
H     -2.791622   -0.950026   -1.415281
H     -3.282479    0.844706    0.280631
H     -0.855246    1.872319    0.665636
H     -1.267319    0.701296    1.992167
18

C      2.276090   -0.465641    0.354235
C      1.149874    0.559666    0.231926
C     -0.240298   -0.091919    0.364943
C     -0.592500   -1.023582   -0.807454
C     -2.025124   -0.737257   -1.090172
C     -2.435673    0.338844   -0.438760
C     -1.367564    0.950210    0.393774
H      2.214849   -0.991753    1.330590
H      3.256505    0.051806    0.291722
H      2.218592   -1.209959   -0.467590
H      1.236789    1.086903   -0.743438
H      1.275805    1.313499    1.039567
H     -0.282798   -0.676515    1.312646
H      0.002197   -0.788055   -1.716616
H     -0.455393   -2.091188   -0.532906
H     -3.440033    0.738454   -0.528068
H     -1.060687    1.915803   -0.064418
H     -1.730630    1.120684    1.430029
16

C      2.530449   -0.168358    0.503825
C      1.567080    0.074912   -0.389504
C      0.176927   -0.481308   -0.211965
C     -0.680935   -0.192062   -1.448253
C     -1.930266    0.398392   -0.903756
C     -1.868481    0.588876    0.401711
C     -0.564777    0.164476    0.973092
H      3.526998    0.233075    0.351388
H      2.332667   -0.765901    1.388730
H      1.806468    0.667878   -1.268419
H      0.236053   -1.583233   -0.060558
H     -0.910578   -1.128025   -2.001555
H     -2.788506    0.671268   -1.508739
H     -2.671250    1.034363    0.980130
H     -0.726561   -0.571710    1.789430
H     -0.035288    1.057357    1.372289
16

C      1.052552   -2.201261   -0.750866
C      0.956982   -0.877864   -0.593942
C     -0.172616   -0.245082    0.183813
C      0.343131    0.583867    1.369666
C     -0.472772    1.828113    1.334250
C     -1.181504    1.905985    0.219446
C     -0.977492    0.738142   -0.676380
H      1.878294   -2.621389   -1.315814
H      0.316013   -2.873784   -0.322122
H      1.715594   -0.239588   -1.038837
H     -0.868369   -1.023380    0.574597
H      0.193933    0.050115    2.332509
H      1.415057    0.857416    1.255113
H     -1.823297    2.747805   -0.016898
H     -0.420214    1.068676   -1.580407
H     -1.955293    0.302228   -0.974129
14

C      2.871435   -0.391121   -0.494670
C      1.667979   -0.393716   -0.567921
C      0.198396   -0.396818   -0.658052
C     -0.442238   -1.294265    0.408534
C     -1.544023   -0.462913    0.960095
C     -1.519078    0.776179    0.500418
C     -0.395285    1.004170   -0.444401
H      3.927705   -0.388747   -0.430164
H     -0.098564   -0.777439   -1.659158
H      0.262539   -1.540438    1.233583
H     -2.265746   -0.816211    1.688994
H     -2.218190    1.544839    0.813248
H      0.329765    1.709468    0.018987
H     -0.774695    1.427013   -1.399361
14

C      2.484739   -1.263673   -0.398103
C      1.465562   -0.777438    0.024362
C      0.221265   -0.183771    0.540872
C     -1.020393   -0.967098    0.092416
C     -2.002423    0.085507   -0.286293
C     -1.434740    1.280575   -0.324835
C      0.008989    1.244973    0.025980
H      3.379220   -1.690423   -0.769127
H      0.265047   -0.171115    1.652652
H     -1.423212   -1.594110    0.916306
H     -0.817295   -1.601532   -0.798732
H     -1.969305    2.181499   -0.605916
H      0.234551    1.992907    0.816210
H      0.607997    1.463698   -0.885791
18

C      2.690137    0.005654    0.261859
C      1.420279    0.842229    0.385233
C      0.171916   -0.035728    0.586295
C     -1.031415    0.804632    0.845483
C     -2.040383    0.499408    0.048755
C     -1.701549   -0.591374   -0.900360
C     -0.210723   -0.851146   -0.665094
H      2.660850   -0.640110   -0.640664
H      2.843997   -0.615116    1.170033
H      1.309034    1.476006   -0.521528
H      1.541111    1.517904    1.259592
H      0.317913   -0.713896    1.456363
H     -1.099383    1.548519    1.633154
H     -3.014874    0.972722    0.109685
H     -2.303651   -1.494504   -0.662551
H     -1.894498   -0.267084   -1.945460
H      0.362385   -0.523898   -1.560766
H     -0.021149   -1.934218   -0.500018
18

C      2.575729    0.199199    0.383693
C      1.235440    0.919337    0.488030
C      0.056791   -0.052143    0.635693
C     -1.187368    0.698151    0.956187
C     -2.173370    0.419103    0.122002
C     -1.774059   -0.561332   -0.919794
C     -0.282377   -0.801906   -0.667540
H      2.610880   -0.430765   -0.529827
H      2.738168   -0.437663    1.278520
H      3.391030    0.950197    0.331503
H      1.091408    1.603804   -0.376959
H      0.253864   -0.773363    1.459334
H     -1.295094    1.369198    1.802674
H     -3.168272    0.843337    0.209057
H     -1.947546   -0.137275   -1.932072
H     -2.354839   -1.500233   -0.793894
H      0.305219   -0.418992   -1.531226
H     -0.075602   -1.888653   -0.555369
18

C      2.400248   -0.718226   -0.616811
C      1.396677    0.341430   -0.170134
C      0.181822   -0.292151    0.527393
C     -0.710338   -0.994702   -0.440980
C     -1.925106   -0.477265   -0.474615
C     -2.077752    0.670858    0.454093
C     -0.731642    0.758788    1.179512
H      1.962664   -1.365084   -1.405611
H      3.302225   -0.222099   -1.033130
H      2.706688   -1.346430    0.246698
H      1.912474    1.018916    0.544648
H      1.072835    0.945184   -1.046711
H     -0.409801   -1.841566   -1.048916
H     -2.714555   -0.846196   -1.121200
H     -2.907163    0.479983    1.168365
H     -2.277644    1.597524   -0.125596
H     -0.320446    1.790287    1.110621
H     -0.861189    0.500748    2.252375
18

C      2.371568   -0.326962    0.566599
C      1.190160    0.615071    0.793125
C     -0.158158   -0.105901    0.623157
C     -1.291168    0.798113    0.975493
C     -2.237104    0.767597    0.051125
C     -1.906391   -0.133720   -1.082094
C     -0.452630   -0.530052   -0.827143
H      2.325229   -1.181073    1.275275
H      3.321395    0.222605    0.735986
H      2.370426   -0.714056   -0.473969
H      1.261480    1.472800    0.088377
H      1.261116    1.017905    1.827431
H     -0.204072   -0.993903    1.292208
H     -3.159536    1.332834    0.128409
H     -2.015688    0.400583   -2.050160
H     -2.570610   -1.024226   -1.056939
H      0.202872    0.007053   -1.548382
H     -0.308889   -1.624665   -0.958487
18

C      2.391149    0.303222    0.568122
C      0.970173    0.841002    0.402085
C      0.069809   -0.123271   -0.393914
C     -0.281402   -1.344887    0.388674
C     -1.581493   -1.586879    0.409163
C     -2.337484   -0.560787   -0.356766
C     -1.297300    0.500777   -0.720155
H      3.014908    1.061404    1.086814
H      2.391781   -0.624168    1.177573
H      2.843708    0.092380   -0.424117
H      0.531805    1.037948    1.405474
H      1.030729    1.809691   -0.140673
H      0.572975   -0.429379   -1.338071
H      0.441937   -2.002811    0.857779
H     -2.760348   -1.023110   -1.274449
H     -3.153220   -0.135585    0.266047
H     -1.484087    1.416887   -0.115988
H     -1.363640    0.767565   -1.797597
18

C      2.326536    0.147745    0.488950
C      0.953057    0.817444    0.496928
C     -0.188844   -0.215429    0.510522
C     -1.507840    0.456949    0.679200
C     -2.373253    0.112299   -0.257195
C     -1.798057   -0.844078   -1.236218
C     -0.333855   -0.983656   -0.818589
H      2.442952   -0.503459    1.381275
H      3.118103    0.926025    0.513368
H      2.462010   -0.462023   -0.428675
H      0.860821    1.484177   -0.388763
H      0.884459    1.451650    1.408112
H     -0.049408   -0.928003    1.353748
H     -1.754230    1.121388    1.501552
H     -3.396386    0.471882   -0.287785
H     -1.879499   -0.427925   -2.263337
H      0.321041   -0.567478   -1.615801
H     -0.087605   -2.057509   -0.677281
18

C      2.495921   -0.074645   -0.211709
C      1.175109    0.598886   -0.582695
C     -0.027536   -0.341159   -0.403285
C     -1.301577    0.325335   -0.934548
C     -2.292181    0.367358    0.228086
C     -1.548144   -0.217997    1.371316
C     -0.328553   -0.598759    1.035721
H      2.516235   -0.330160    0.868182
H      3.336718    0.619548   -0.421731
H      2.641453   -0.998055   -0.811694
H      1.234822    0.911021   -1.648481
H      1.043323    1.515755    0.033822
H      0.146010   -1.306394   -0.928704
H     -1.720131   -0.241609   -1.794781
H     -3.195150   -0.241587    0.008298
H     -2.575478    1.417048    0.450936
H     -1.957951   -0.334121    2.369293
H      0.357111   -1.070464    1.731986
16

C      2.756533   -0.246867    0.889322
C      1.753753   -0.717920    0.145202
C      0.648282    0.186298   -0.340933
C     -0.245753   -0.526923   -1.294981
C     -1.515630   -0.468459   -0.934613
C     -1.711400    0.284118    0.330946
C     -0.292731    0.629536    0.795045
H      2.805336    0.800109    1.173203
H      1.754734   -1.772310   -0.115744
H      1.081039    1.071975   -0.856802
H      0.093341   -1.008907   -2.206708
H     -2.322615   -0.902900   -1.515492
H     -2.235324   -0.350608    1.077434
H     -2.299898    1.205508    0.132424
H     -0.196351    1.722569    0.975230
H     -0.073316    0.094781    1.746468
16

C      2.647647    0.623354    0.544769
C      1.688262   -0.304014    0.546841
C      0.523322   -0.248698   -0.401623
C     -0.299506   -1.479501   -0.264224
C     -1.566294   -1.212622    0.000590
C     -1.829408    0.245648    0.101247
C     -0.453572    0.896579   -0.074298
H      2.616932    1.457128   -0.150207
H      3.470430    0.545623    1.246530
H      0.885417   -0.170511   -1.450552
H      0.081144   -2.487288   -0.398998
H     -2.327777   -1.977526    0.112271
H     -2.524191    0.559240   -0.707231
H     -2.264566    0.487989    1.094496
H     -0.476545    1.634132   -0.906178
H     -0.171294    1.430467    0.860856
16

C      2.741917    0.570975   -0.063342
C      1.549181    0.161248    0.368918
C      0.380297    0.094562   -0.570722
C     -0.201337   -1.274837   -0.565708
C     -1.441224   -1.293154   -0.109047
C     -1.918388    0.057601    0.283962
C     -0.774557    0.996302   -0.112492
H      2.890515    0.858879   -1.099875
H      3.580816    0.620419    0.623166
H      1.422819   -0.117915    1.411719
H      0.329599   -2.164368   -0.889386
H     -2.029676   -2.199564   -0.011422
H     -2.853465    0.310345   -0.260334
H     -2.093283    0.087947    1.380843
H     -1.087930    1.631779   -0.968402
H     -0.495286    1.659780    0.736409
16

C      2.573049    0.621042   -0.062806
C      1.656388   -0.219437    0.425137
C      0.373621   -0.491745   -0.318723
C     -0.405398   -1.581950    0.334657
C     -1.668224   -1.230028    0.512738
C     -1.956548    0.146487    0.034348
C     -0.581087    0.713845   -0.316350
H      2.413413    1.133722   -1.006695
H      3.492297    0.800543    0.485157
H      1.854026   -0.717880    1.370815
H      0.597867   -0.800876   -1.363701
H     -2.410821   -1.888978    0.949425
H     -2.607979    0.100648   -0.864738
H     -2.446757    0.741817    0.834254
H     -0.597177    1.209181   -1.311639
H     -0.286669    1.463608    0.452409
16

C      1.696793    0.923057    0.910963
C      1.625956   -0.193052    0.174929
C      0.314494   -0.803444   -0.265158
C     -0.555267   -1.123939    0.901189
C     -1.693168   -0.448958    0.894215
C     -1.777685    0.466964   -0.276225
C     -0.538030    0.150370   -1.118080
H      0.798871    1.444604    1.227282
H      2.663692    1.321226    1.200630
H      2.549221   -0.682425   -0.120777
H      0.519470   -1.737918   -0.831950
H     -0.296497   -1.838970    1.675062
H     -2.713003    0.279817   -0.845584
H     -1.751629    1.520207    0.076673
H      0.002746    1.083325   -1.391964
H     -0.845964   -0.360862   -2.056920
16

C      2.516291   -0.041753   -0.465671
C      1.508161    0.095775    0.400028
C      0.141456   -0.469155    0.102047
C     -0.761545   -0.342076    1.278951
C     -1.900112    0.255293    0.974692
C     -1.970100    0.648829   -0.456193
C     -0.586616    0.307059   -1.010231
H      2.374159   -0.559728   -1.409460
H      3.493649    0.367303   -0.231281
H      1.690286    0.616261    1.336914
H      0.224658   -1.546024   -0.164832
H     -0.538791   -0.733755    2.266644
H     -2.703523    0.409731    1.687184
H     -2.752406    0.043455   -0.962558
H     -0.066274    1.257721   -1.259691
H     -0.669292   -0.308936   -1.932254
16

C      2.539032    0.834341    0.138744
C      1.539609    0.064996    0.579698
C      0.403874   -0.331684   -0.324896
C     -0.496914    0.871398   -0.620319
C     -1.907301    0.476140   -0.184363
C     -1.745400   -0.872274    0.416390
C     -0.500042   -1.307949    0.344263
H      3.351881    1.104144    0.805099
H      2.553502    1.198418   -0.884261
H      1.564846   -0.285509    1.608569
H      0.792912   -0.780078   -1.265685
H     -0.470250    1.134894   -1.700228
H     -2.596560    0.425311   -1.054325
H     -2.288302    1.192311    0.573053
H     -2.555680   -1.445339    0.855042
H     -0.185207   -2.279120    0.713219
14

C      2.858931    0.550513   -0.668229
C      1.893948    0.189967   -0.041625
C      0.717785   -0.250714    0.723032
C     -0.155873    0.915881    1.019301
C     -1.342937    0.815147    0.447291
C     -1.483227   -0.432226   -0.346698
C     -0.175566   -1.191071   -0.098866
H      3.705700    0.867025   -1.218407
H      0.143040    1.763075    1.628539
H     -2.114507    1.573346    0.532298
H     -1.597130   -0.180065   -1.422855
H     -2.360495   -1.016550    0.004753
H      0.288159   -1.501799   -1.062205
H     -0.377828   -2.102528    0.503670
14

C      2.916633   -0.474276    0.776915
C      1.820275   -0.573240    0.284833
C      0.485043   -0.693634   -0.316268
C     -0.484693   -1.223989    0.680179
C     -1.565778   -0.464550    0.749704
C     -1.509961    0.705603   -0.164061
C     -0.091497    0.668032   -0.734415
H      3.878777   -0.387237    1.208880
H      0.527348   -1.381101   -1.188339
H     -2.405290   -0.687655    1.399183
H     -2.265748    0.587106   -0.970024
H     -1.693412    1.645885    0.398818
H     -0.109584    0.764905   -1.842006
H      0.497887    1.514152   -0.313268
14

C      2.823520    0.228154   -0.615329
C      1.733825    0.289044   -0.102760
C      0.405622    0.363010    0.523348
C     -0.436775    1.378325   -0.162169
C     -1.605518    0.897126   -0.552557
C     -1.748820   -0.540170   -0.195292
C     -0.382214   -0.945278    0.364047
H      3.779804    0.174632   -1.065366
H      0.510845    0.631516    1.596572
H     -0.148466    2.414844   -0.304956
H     -2.537885   -0.651810    0.579038
H     -2.011970   -1.136267   -1.095059
H      0.113682   -1.647030   -0.344639
H     -0.495651   -1.456096    1.345255
14

C      2.474084    0.828702   -0.975404
C      1.564661    0.529673   -0.242310
C      0.456310    0.164533    0.652358
C     -0.709945    1.052312    0.403147
C     -1.759909    0.387755   -0.046756
C     -1.492298   -1.066587   -0.191285
C     -0.075882   -1.247964    0.356969
H      3.272099    1.091067   -1.618991
H      0.784114    0.253368    1.710357
H     -0.705557    2.126650    0.559533
H     -2.701709    0.860686   -0.304298
H     -1.530119   -1.338541   -1.268062
H      0.558289   -1.809560   -0.365547
H     -0.134138   -1.832093    1.300420
14

C      2.788084   -0.870076   -0.690333
C      1.760926   -0.634716   -0.104169
C      0.512538   -0.348992    0.609701
C     -0.655232   -1.069251   -0.064952
C     -1.658741    0.013196   -0.463267
C     -1.003136    1.288285   -0.074819
C      0.170335    1.093921    0.501073
H      3.689463   -1.076533   -1.204906
H      0.604507   -0.641993    1.677578
H     -1.119392   -1.807799    0.624743
H     -2.617013   -0.105810    0.086352
H     -1.832968   -0.011690   -1.559084
H     -1.436382    2.270136   -0.234978
H      0.797012    1.901324    0.867191
16

C      2.390133   -0.177524   -0.167626
C      1.251484    0.743149    0.142939
C     -0.025538    0.355963    0.052562
C     -1.156842    1.212409    0.340911
C     -2.277186    0.542460    0.158294
C     -2.036469   -0.866709   -0.280767
C     -0.510450   -0.995930   -0.355690
H      2.366904   -1.054955    0.512427
H      3.352543    0.357210   -0.026014
H      2.325456   -0.521358   -1.221438
H      1.479083    1.757021    0.450661
H     -1.105337    2.245971    0.658975
H     -3.259156    0.969699    0.312410
H     -2.452387   -1.567826    0.474324
H     -0.140907   -1.775293    0.345497
H     -0.201330   -1.224286   -1.397464
16

C      2.504104   -0.452959   -0.007186
C      1.435587    0.508544   -0.424509
C      0.139208    0.274523   -0.198317
C     -0.428442   -0.930775    0.473682
C     -1.941346   -0.687140    0.415445
C     -2.090975    0.641991   -0.253393
C     -0.930642    1.166712   -0.593179
H      2.344265   -1.435931   -0.498539
H      3.498237   -0.061033   -0.307769
H      2.490430   -0.581861    1.095620
H      1.731594    1.420334   -0.929943
H     -0.085319   -0.968464    1.530394
H     -2.383736   -0.656427    1.434294
H     -2.430135   -1.476281   -0.193225
H     -3.041851    1.120128   -0.448645
H     -0.810979    2.118641   -1.094730
16

C      2.421359    0.303371   -0.065329
C      1.280323   -0.657333    0.063214
C      0.001263   -0.272615   -0.015209
C     -0.475753    1.081731   -0.230361
C     -1.793560    1.086389   -0.251625
C     -2.374490   -0.276745   -0.050849
C     -1.159497   -1.198688    0.106540
H      2.364223    1.071059    0.734984
H      2.392399    0.797521   -1.059354
H      3.382817   -0.242683    0.033005
H      1.506661   -1.704328    0.226260
H      0.138004    1.964402   -0.355585
H     -2.384206    1.981192   -0.396629
H     -2.994225   -0.284829    0.871412
H     -1.160324   -1.697699    1.099976
H     -1.144993   -1.950746   -0.710448
16

C      2.544218    0.054656    0.042155
C      1.346330   -0.759007   -0.338149
C      0.094096   -0.344312   -0.118562
C     -1.117618   -1.130442   -0.481008
C     -2.273102   -0.244239   -0.000329
C     -1.614168    0.970772    0.569767
C     -0.299506    0.907434    0.503154
H      2.551582    0.231427    1.138431
H      3.470258   -0.490170   -0.236896
H      2.528521    1.027685   -0.492720
H      1.507988   -1.720930   -0.809991
H     -1.163851   -1.262427   -1.583943
H     -2.939451    0.040133   -0.842831
H     -2.851701   -0.768746    0.788502
H     -2.149979    1.807911    0.997580
H      0.366384    1.680256    0.864839
16

C      2.180525   -0.841472    0.068338
C      1.104520    0.155320    0.495628
C     -0.047612    0.221844   -0.518627
C     -0.877744   -1.029287   -0.510985
C     -2.123193   -0.731635   -0.174416
C     -2.236901    0.692573    0.069172
C     -1.056505    1.252615   -0.120535
H      1.762570   -1.869224    0.020403
H      2.589840   -0.564608   -0.926534
H      3.009025   -0.832356    0.807561
H      0.719395   -0.128809    1.500290
H      1.573665    1.160023    0.580521
H      0.326428    0.435601   -1.543399
H     -2.926685   -1.450934   -0.093803
H     -3.136774    1.218834    0.358308
H     -0.860553    2.311514   -0.011922
16

C      2.130073   -0.511034   -0.131523
C      0.932413    0.100399    0.593584
C     -0.238603    0.377739   -0.363078
C     -0.920622   -0.879705   -0.809990
C     -2.189397   -0.904659   -0.429674
C     -2.454553    0.323671    0.300691
C     -1.359500    1.062188    0.347400
H      1.868813   -1.506190   -0.548192
H      2.969324   -0.640477    0.583907
H      2.465630    0.155828   -0.954078
H      1.258839    1.058076    1.055257
H      0.611102   -0.581533    1.412159
H      0.083606    0.983452   -1.237804
H     -0.455259   -1.668207   -1.385992
H     -3.403965    0.600605    0.738941
H     -1.297902    2.029846    0.828393
18

C      2.442010   -0.863434   -0.618379
C      1.783608    0.479148   -0.327743
C      0.319880    0.327406   -0.034592
C     -0.589041   -0.007135   -0.937869
C     -1.958391   -0.047793   -0.363989
C     -1.766552    0.301628    1.116241
C     -0.272928    0.588572    1.302145
H      2.010190   -1.317943   -1.535283
H      2.297181   -1.552618    0.240422
H      3.530403   -0.711490   -0.772496
H      1.938767    1.182942   -1.173540
H     -0.361065   -0.216058   -1.978541
H     -2.602136    0.703180   -0.870157
H     -2.391146   -1.064259   -0.482467
H     -2.076593   -0.553343    1.756410
H     -2.372075    1.193810    1.388187
H     -0.105560    1.648419    1.591850
H      0.173447   -0.091032    2.059811
18

C      2.265483   -0.840515    0.367396
C      1.539627    0.499881    0.302472
C      0.054548    0.307297    0.156229
C     -0.726760   -0.173208    1.111990
C     -2.149897   -0.244001    0.693175
C     -2.159815    0.320105   -0.728698
C     -0.706857    0.663454   -1.070883
H      1.937897   -1.417493    1.258240
H      3.359646   -0.666923    0.441690
H      2.060341   -1.433288   -0.549702
H      1.927344    1.074396   -0.566286
H      1.750655    1.085681    1.223021
H     -0.368345   -0.484279    2.088201
H     -2.484222   -1.303680    0.696879
H     -2.565937   -0.427026   -1.445372
H     -2.791281    1.233719   -0.756359
H     -0.595508    1.747154   -1.290944
H     -0.346919    0.058727   -1.931050
18

C      2.356493   -0.705220   -0.012673
C      1.519243    0.548408    0.221884
C      0.050724    0.256109    0.074827
C     -0.647495   -0.475210    0.931194
C     -2.080115   -0.567157    0.550777
C     -2.180228    0.214370   -0.759292
C     -0.793143    0.798813   -1.023618
H      2.115837   -1.480959    0.745062
H      3.434507   -0.452566    0.070397
H      2.163181   -1.111802   -1.028472
H      1.820058    1.322525   -0.516620
H      1.719731    0.948286    1.239248
H     -0.224339   -0.942006    1.815309
H     -2.367766   -1.626532    0.387263
H     -2.713631   -0.109096    1.340304
H     -2.945094    1.018199   -0.687296
H     -0.812786    1.909127   -0.979230
H     -0.415177    0.454710   -2.009052
18

C      2.424861    0.150927    0.812386
C      1.643806    0.300710   -0.489698
C      0.168568    0.115039   -0.263024
C     -0.392687   -1.045075    0.044258
C     -1.868627   -0.937440    0.165310
C     -2.161698    0.551231   -0.046074
C     -0.831381    1.205099   -0.420939
H      2.072442    0.893791    1.559677
H      3.504471    0.324662    0.619704
H      2.299886   -0.872657    1.225330
H      2.003805   -0.445585   -1.230393
H      1.831686    1.314427   -0.904722
H      0.159734   -1.971064    0.170814
H     -2.355616   -1.553303   -0.620920
H     -2.197213   -1.272255    1.172480
H     -2.917319    0.697462   -0.848641
H     -2.536180    1.006285    0.895811
H     -0.848540    1.537745   -1.481348
16

C      2.512660    0.775771    0.231921
C      1.798411   -0.346860    0.178068
C      0.331992   -0.350123    0.004588
C     -0.378497   -1.461022   -0.034419
C     -1.829140   -1.204063   -0.200560
C     -1.936117    0.315695   -0.321651
C     -0.519306    0.863859   -0.131962
H      2.048919    1.750084    0.150916
H      3.586021    0.725071    0.360691
H      2.317831   -1.293856    0.266404
H      0.045743   -2.452947    0.058329
H     -2.372140   -1.563744    0.699774
H     -2.319167    0.574934   -1.331837
H     -2.625699    0.726709    0.447928
H     -0.205141    1.460990   -1.015271
H     -0.456370    1.479503    0.791369
16

C      2.624202    0.469430    0.254115
C      1.744876   -0.473930   -0.077810
C      0.288315   -0.232617   -0.098376
C     -0.584649   -1.167212   -0.422887
C     -1.983812   -0.681227   -0.363233
C     -1.863264    0.787666    0.038576
C     -0.373104    1.058307    0.239036
H      2.311198    1.468482    0.527724
H      3.682446    0.242765    0.254075
H      2.117182   -1.456630   -0.342539
H     -0.312826   -2.178859   -0.697839
H     -2.556573   -1.259049    0.393514
H     -2.462719   -0.766206   -1.360874
H     -2.432896    0.991669    0.971563
H     -0.039554    1.859101   -0.453905
H     -0.158822    1.338310    1.293147
16

C      2.531021    0.914426    0.842193
C      1.816025   -0.192854    0.653040
C      0.433477   -0.165144    0.138352
C     -0.275217   -1.258712   -0.067326
C     -1.634711   -0.962848   -0.578455
C     -1.648020    0.556128   -0.767254
C     -0.327473    1.070032   -0.194917
H      2.127823    1.895024    0.624703
H      3.542480    0.844324    1.220759
H      2.271490   -1.148685    0.883968
H      0.087556   -2.260168    0.128600
H     -2.393586   -1.276600    0.170121
H     -1.806840   -1.488568   -1.542052
H     -2.515529    1.014974   -0.244400
H     -1.696699    0.808399   -1.848234
H     -0.511798    1.650273    0.735190
14

C      3.135085    0.730757   -0.007661
C      1.949472    0.517232    0.035828
C      0.534861    0.261338    0.087444
C     -0.359809    1.187133    0.363002
C     -1.743279    0.653936    0.330737
C     -1.571676   -0.835268    0.022069
C     -0.070941   -1.064263   -0.182368
H      4.175924    0.918209   -0.045844
H     -0.116467    2.220669    0.575883
H     -2.313626    1.157851   -0.478944
H     -2.142185   -1.118548   -0.889494
H     -1.939941   -1.431606    0.884112
H      0.143926   -1.376449   -1.227325
H      0.318656   -1.820991    0.532561
14

C      2.607367   -1.229812    1.408634
C      1.642044   -0.748608    0.870345
C      0.490157   -0.175223    0.227289
C     -0.099708    0.926029    0.643521
C     -1.265103    1.284900   -0.200167
C     -1.305007    0.202739   -1.280739
C     -0.161907   -0.762701   -0.967471
H      3.454816   -1.652256    1.881195
H      0.224704    1.499933    1.502893
H     -2.194163    1.278488    0.409262
H     -1.111344    2.281745   -0.663366
H     -2.283112   -0.326231   -1.275576
H     -0.547932   -1.779123   -0.736442
H      0.549188   -0.799883   -1.819377
14

C      3.285756    0.601291   -0.366562
C      2.106784    0.374185   -0.258462
C      0.700800    0.102603   -0.129416
C     -0.208094    1.041638    0.030592
C     -1.573799    0.477494    0.150790
C     -1.380480   -1.032900   -0.025394
C      0.126548   -1.263506   -0.146686
H      4.320741    0.800688   -0.461442
H      0.016085    2.100088    0.081414
H     -1.990816    0.710641    1.153989
H     -2.231155    0.892669   -0.642991
H     -1.798207   -1.589018    0.842282
H     -1.878241   -1.379646   -0.956189
H      0.504079   -1.836229    0.728075
16

C      2.321003    0.688572    0.164975
C      1.433264   -0.427266    0.702104
C      0.003822   -0.226316    0.301340
C     -0.785835    0.717044    0.792320
C     -2.100513    0.577818    0.194208
C     -2.088743   -0.449091   -0.640457
C     -0.740367   -1.090467   -0.664362
H      2.001577    1.667990    0.579368
H      3.371137    0.501486    0.471421
H      2.270406    0.721397   -0.944478
H      1.800889   -1.405301    0.323862
H     -0.497054    1.461759    1.522703
H     -2.958175    1.206058    0.394349
H     -2.943809   -0.774113   -1.218318
H     -0.291515   -1.031301   -1.678356
H     -0.796086   -2.138269   -0.300679
16

C      2.206001    0.524758    0.411519
C      1.334236   -0.176105   -0.626065
C     -0.105975   -0.187552   -0.205864
C     -0.881018    0.885719   -0.141101
C     -2.208945    0.473298    0.269766
C     -2.218956   -0.838393    0.440576
C     -0.873733   -1.419405    0.151325
H      1.904115    1.588440    0.518277
H      3.267831    0.489649    0.088792
H      2.116029    0.016962    1.395680
H      1.692685   -1.220830   -0.748585
H      1.431477    0.338669   -1.606153
H     -0.573340    1.898448   -0.367247
H     -3.060936    1.125062    0.410041
H     -3.090127   -1.406353    0.738814
H     -0.939344   -2.092365   -0.729774
16

C      2.419454   -0.224454    0.348841
C      1.524396    0.070853   -0.846915
C      0.082249    0.065003   -0.453913
C     -0.733545   -0.966398   -0.595927
C     -2.080616   -0.631850   -0.044329
C     -1.862207    0.764708    0.442958
C     -0.619661    1.151093    0.205309
H      2.293801    0.557007    1.128560
H      3.479165   -0.236360    0.019567
H      2.169102   -1.218296    0.776846
H      1.792922    1.052370   -1.292729
H     -0.456874   -1.915433   -1.037064
H     -2.852270   -0.656733   -0.842241
H     -2.341422   -1.307306    0.797380
H     -2.608994    1.379675    0.927514
H     -0.205498    2.116119    0.466142
16

C      2.112965   -0.032195    0.508950
C      1.271922    0.174452   -0.745764
C     -0.190109    0.117303   -0.419799
C     -0.928768    1.147818   -0.036942
C     -2.317197    0.698400    0.281457
C     -2.210644   -0.771630    0.031028
C     -0.990724   -1.091653   -0.366174
H      1.898529    0.765300    1.252292
H      3.190673    0.008219    0.244867
H      1.894059   -1.023421    0.960787
H      1.515910   -0.617398   -1.486108
H      1.520865    1.157965   -1.200344
H     -0.567940    2.164236    0.054109
H     -2.532809    0.880459    1.355394
H     -3.012817   -1.484837    0.166337
H     -0.653914   -2.093019   -0.600091
20

C      2.452998   -0.270781    1.544441
C      1.465693    0.594802    0.764108
C      0.175312   -0.156393    0.363896
C      0.487919   -1.287740   -0.636567
C     -0.866895    0.886321   -0.137368
C     -2.281297    0.334533   -0.280028
C     -1.514033    0.770569   -1.516654
H      2.951899   -1.015698    0.890750
H      1.959898   -0.768284    2.406354
H      1.969420    1.001334   -0.139744
H      1.206008    1.454614    1.418990
H     -0.244689   -0.622508    1.283135
H      1.177304   -2.029906   -0.185208
H      0.957770   -0.879985   -1.556977
H     -0.432445   -1.845532   -0.904957
H     -0.872743    1.899639    0.320298
H     -3.087323    1.039021    0.016439
H     -2.399987   -0.765504   -0.186630
H     -1.873618    1.733236   -1.937342
H     -1.231192   -0.071739   -2.177844
20

C      2.810184   -0.167449    0.200532
C      1.556897    0.524897   -0.334636
C      0.242064   -0.043826    0.238323
C      0.018611   -1.481900   -0.267288
C     -0.909057    0.949021   -0.097578
C     -2.213081    0.662534    0.639412
C     -2.150190    0.504753   -0.870322
H      2.889079   -1.198994   -0.197740
H      2.800821   -0.191150    1.310883
H      3.707807    0.393273   -0.134340
H      1.641350    1.609478   -0.102478
H      0.335041   -0.077740    1.346755
H      0.832647   -2.150391    0.079106
H     -0.920660   -1.906260    0.142337
H     -0.013928   -1.506112   -1.377616
H     -0.688398    2.038674   -0.114298
H     -2.768244    1.565842    0.970662
H     -2.274187   -0.298483    1.192120
H     -2.666997    1.321333   -1.417237
H     -2.229758   -0.547498   -1.206597
20

C      2.693398   -0.119265    0.281929
C      1.268850    0.327133    0.599088
C      0.284112   -0.086317   -0.509834
C     -0.058510   -1.583407   -0.494213
C     -0.909477    0.896608   -0.623901
C     -1.793819    0.973894    0.615685
C     -2.346164    0.379011   -0.667620
H      2.995307    0.241026   -0.724655
H      2.779993   -1.224553    0.320162
H      3.390216    0.306868    1.034250
H      0.951146   -0.096411    1.576494
H      1.277998    1.435120    0.695323
H     -0.663785   -1.842289   -1.387593
H     -0.613942   -1.851141    0.429056
H      0.865307   -2.193791   -0.541867
H     -0.731028    1.887602   -1.092507
H     -2.184392    1.988156    0.844216
H     -1.603288    0.220681    1.409624
H     -2.536080   -0.709316   -0.581891
H     -3.065842    1.050392   -1.181746
20

C     -0.327197    1.198946    1.290200
C     -0.064642    0.862777   -0.186869
C      1.446403    0.779982   -0.493738
C      2.151049   -0.416218    0.153228
C     -0.811577   -0.381800   -0.736361
C     -2.310622   -0.403652   -0.465608
C     -1.401913   -1.412355    0.220977
H      0.103482    0.444085    1.978440
H      0.082679    2.200133    1.541949
H     -0.452889    1.727403   -0.768747
H      1.945115    1.715160   -0.157215
H      1.586667    0.715973   -1.595149
H      3.209689   -0.440993   -0.180736
H      1.670804   -1.370465   -0.147933
H      2.144506   -0.330675    1.258855
H     -0.555498   -0.750459   -1.753225
H     -2.706086    0.380831    0.214060
H     -2.923502   -0.838982   -1.283207
H     -1.484530   -2.436485   -0.200020
H     -1.301940   -1.243205    1.311098
20

C      2.442596   -0.399669    0.566648
C      1.316334    0.528312    0.109264
C     -0.009713   -0.217644   -0.150429
C      0.090030   -1.133139   -1.378047
C     -1.126403    0.819569   -0.395820
C     -1.783093    1.305602    0.892753
C     -2.509762    0.315460    0.004551
H      3.324457    0.208133    0.859902
H      2.752375   -1.078586   -0.254340
H      2.120942   -0.999734    1.444248
H      1.637878    1.072822   -0.805777
H      1.157481    1.283748    0.910060
H     -0.237639   -0.854980    0.735047
H      0.811974   -1.955825   -1.196685
H      0.410172   -0.558216   -2.273618
H     -0.896537   -1.598548   -1.589003
H     -2.186947    2.337679    0.832747
H     -1.404766    0.872088    1.843601
H     -3.340823    0.765741   -0.577233
H     -2.568556   -0.712812    0.422133
20

C      2.085587    0.152943    1.019451
C      1.109192    0.884642    0.097555
C      0.244747   -0.081479   -0.742276
C     -0.542532    0.700462   -1.811148
C     -0.623708   -1.002758    0.159523
C     -2.089219   -1.185662   -0.216701
C     -1.710109   -0.325219    0.979328
H      2.722348   -0.544613    0.435021
H      2.742333    0.892530    1.524094
H      1.537377   -0.413561    1.800942
H      0.461908    1.551446    0.706937
H      1.705907    1.529803   -0.584091
H      0.935786   -0.751641   -1.299796
H     -1.240740    1.427433   -1.346777
H     -1.115375    0.002761   -2.458032
H      0.158760    1.261101   -2.465458
H     -0.146470   -1.873863    0.658480
H     -2.443770   -2.180692    0.127313
H     -1.921728   -0.801551    1.960250
H     -1.870294    0.757918    0.804477
18

C      1.535945    0.931828    1.917154
C      0.877158   -0.054967    1.304265
C      0.785977   -0.142137   -0.207202
C      1.079040   -1.576849   -0.650884
C     -0.560268    0.321794   -0.823949
C     -1.843880   -0.012323   -0.074710
C     -1.337470    1.424485   -0.115449
H      2.042208    1.712324    1.357683
H      0.379208   -0.799422    1.917404
H      1.577209    0.500116   -0.654093
H      0.303601   -2.272025   -0.262311
H      2.073455   -1.900064   -0.274342
H      1.092397   -1.640603   -1.760185
H     -0.659857    0.330483   -1.930896
H     -2.723801   -0.192872   -0.727623
H     -1.743102   -0.498665    0.916655
H     -0.950585    1.787912    0.858013
H     -1.927236    2.080986   -0.789532
18

C      2.161891    0.924024    1.198470
C      0.953115    0.419027    0.942244
C      0.419593    0.250715   -0.463334
C      1.163926   -0.882175   -1.176826
C     -1.106135   -0.013910   -0.546208
C     -2.000024    0.674953    0.477635
C     -1.755809   -0.827118    0.566660
H      2.494937    1.021783    2.225570
H      2.817211    1.243685    0.394115
H      0.610528    1.194132   -1.020594
H      0.800233   -0.981448   -2.222072
H      2.253800   -0.670629   -1.213983
H      1.002269   -1.846448   -0.648163
H     -1.572563   -0.133052   -1.548052
H     -3.011941    0.938370    0.103561
H     -1.501467    1.261940    1.276672
H     -1.107413   -1.133333    1.413695
H     -2.622150   -1.440516    0.240609
18

C      2.068265    0.079617    1.426058
C      1.156065    0.571414    0.587177
C      0.600769   -0.283370   -0.522808
C      0.800829    0.383354   -1.881053
C     -0.853929   -0.785562   -0.354596
C     -1.888740    0.241696    0.083841
C     -1.448065   -0.852810    1.047418
H      2.460745    0.699040    2.225843
H      2.427273   -0.940065    1.323192
H      0.809561    1.592655    0.713966
H      0.197913    1.314250   -1.948718
H      1.873273    0.632235   -2.027812
H      0.491409   -0.309430   -2.691839
H     -1.237330   -1.549902   -1.063805
H     -2.902693    0.082896   -0.340309
H     -1.512465    1.252733    0.342929
H     -0.832917   -0.480503    1.891898
H     -2.209962   -1.648247    1.188619
18

C      0.341170    1.624390    0.372605
C      0.425674    0.093544    0.372505
C      1.571907   -0.340949   -0.505089
C      2.722151   -0.794726    0.002484
C     -0.859346   -0.640217   -0.083420
C     -1.971408    0.116709   -0.803909
C     -2.122656   -0.238417    0.667572
H      1.211002    2.059493    0.909595
H      0.316505    2.028889   -0.662258
H      0.615173   -0.225501    1.421698
H      1.476427   -0.241171   -1.583013
H      3.532708   -1.077706   -0.661163
H      2.867168   -0.886285    1.074500
H     -0.807966   -1.734380   -0.273761
H     -2.596987   -0.510873   -1.473071
H     -1.847039    1.203293   -0.981930
H     -2.039339    0.633387    1.351041
H     -2.835144   -1.069478    0.855613
18

C      2.129481   -1.049854    0.624356
C      1.531829    0.147666    0.601635
C      0.304329    0.433942   -0.231795
C      0.619013    0.311098   -1.725706
C     -0.835914   -0.533919    0.148490
C     -2.223001    0.074786   -0.030509
C     -1.633991   -0.063062    1.359828
H      3.007504   -1.205817    1.242551
H      1.749151   -1.878959    0.035992
H      1.941216    0.946017    1.213915
H      0.017098    1.493798   -0.043626
H      1.461794    0.983037   -1.995734
H      0.890848   -0.732665   -1.992374
H     -0.267687    0.609065   -2.325005
H     -2.269321    1.120408   -0.404080
H     -3.017171   -0.667968   -0.252958
H     -1.323614    0.899312    1.821151
H     -2.081563   -0.886884    1.953869
18

C      2.378215    0.336086   -0.913218
C      1.523951    0.436583    0.110012
C      0.357898   -0.513408    0.264152
C     -0.230807   -0.415801    1.680786
C     -0.656106   -0.327201   -0.900887
C     -1.265628    1.065933   -1.044930
C     -2.137598   -0.106277   -0.622227
H      3.211031    1.026850   -0.995330
H      2.254712   -0.431647   -1.671009
H      1.690695    1.212929    0.852230
H      0.757223   -1.547693    0.172273
H     -0.650161    0.593207    1.877142
H      0.563327   -0.612725    2.432811
H     -1.020627   -1.183495    1.822817
H     -0.418338   -0.788605   -1.882751
H     -1.046513    1.712383   -0.169075
H     -2.814570   -0.440618   -1.435421
H     -2.496704   -0.016501    0.422626
16

C     -1.706073    2.439209   -0.225699
C     -1.220375    1.338223   -0.300215
C     -0.627338   -0.003008   -0.392516
C     -1.633646   -1.063501    0.047171
C      0.643567   -0.071571    0.453546
C      1.894146    0.426699   -0.252994
C      1.678158   -1.063800   -0.052351
H     -2.132313    3.405599   -0.160121
H     -2.538042   -1.017431   -0.596106
H     -1.932025   -0.908739    1.106922
H     -1.185990   -2.074236   -0.057951
H      0.614020    0.080250    1.554377
H      2.658780    0.866567    0.421495
H      1.757811    0.764899   -1.302975
H      2.314761   -1.508999    0.741117
H      1.414559   -1.610162   -0.983701
16

C      2.530496   -1.342302   -0.820779
C      1.753295   -0.547796   -0.353104
C      0.806168    0.419931    0.217540
C      0.473477    1.484876   -0.834442
C     -0.401814   -0.356948    0.796718
C     -1.439216   -0.843108   -0.208050
C     -1.790735    0.272308    0.767223
H      3.212407   -2.039660   -1.231293
H      1.316661    0.926553    1.064058
H     -0.034061    2.350820   -0.360550
H      1.399228    1.866678   -1.317422
H     -0.223379   -1.061895    1.637511
H     -1.900767   -1.821417    0.043469
H     -1.311937   -0.503824   -1.257772
H     -2.467328   -0.059523    1.582868
H     -1.922495    1.255308    0.274026
16

C      2.048930    2.107043   -0.247561
C      1.374931    1.107276   -0.234719
C      0.552979   -0.110430   -0.221005
C      1.360109   -1.268068    0.366583
C     -0.697425    0.142953    0.639853
C     -1.845734    0.765896   -0.148002
C     -1.892197   -0.705125    0.215490
H      2.640404    2.984483   -0.258707
H      0.297477   -0.362208   -1.274913
H      1.663263   -1.047224    1.413439
H      0.751546   -2.197506    0.359703
H      2.272624   -1.448187   -0.241917
H     -2.523440    1.397298    0.463553
H     -1.665414    0.963175   -1.226842
H     -2.597350   -0.937793    1.040444
H     -1.740702   -1.391583   -0.645399
16

C      2.353778    1.129926    1.048110
C      1.595602    0.517897    0.337903
C      0.670457   -0.228261   -0.528093
C      0.496280   -1.662425   -0.002424
C     -0.636160    0.580558   -0.716054
C     -1.954444   -0.169198   -0.567416
C     -1.492025    0.784482    0.524500
H      3.018947    1.667112    1.671639
H      1.147458   -0.304204   -1.528533
H      0.058871   -1.671494    1.017830
H     -0.157614   -2.245036   -0.685380
H      1.482528   -2.173349    0.037029
H     -0.640927    1.442341   -1.418313
H     -2.734020    0.316548   -1.192197
H     -1.155998    0.272036    1.448956
H     -2.052734    1.743069    0.552440
18

C     -0.066865    1.472341    1.323085
C      0.206520    0.286726    0.761421
C      1.623831   -0.042302    0.365910
C      2.064500    0.736897   -0.869090
C     -0.869889   -0.769664    0.692537
C     -1.019142   -1.491147   -0.640264
C     -2.023669   -0.426177   -0.240920
H      0.707715    2.223266    1.446480
H     -1.069034    1.704240    1.671446
H      1.742304   -1.132025    0.182538
H      1.404161    0.507714   -1.731600
H      2.039440    1.828099   -0.667014
H      3.105085    0.452178   -1.129360
H     -1.159737   -1.332987    1.604784
H     -1.410254   -2.527364   -0.561723
H     -0.340867   -1.174068   -1.459686
H     -1.925659    0.517758   -0.819919
H     -3.008440   -0.833486    0.071377
18

C     -0.091227    0.264652    1.842022
C      0.005287    0.456792    0.517890
C      1.360596    0.630744   -0.127188
C      2.102935   -0.699755   -0.216368
C     -1.249601    0.616638   -0.301986
C     -1.267266   -0.182619   -1.596631
C     -2.091317   -0.643569   -0.407145
H     -1.061749    0.181373    2.322243
H      0.797968    0.190802    2.460855
H      1.965971    1.358181    0.456361
H      1.245269    1.043410   -1.152736
H      1.509817   -1.432281   -0.804564
H      3.080147   -0.546614   -0.720767
H      2.289690   -1.110513    0.798512
H     -1.815255    1.572751   -0.290018
H     -1.920142    0.323921   -2.338990
H     -3.182757   -0.470736   -0.520464
H     -1.678367   -1.553175    0.078974
16

C      2.065827    1.135341    0.224646
C      1.689508    0.000174   -0.363894
C      0.270093   -0.370525   -0.585271
C     -0.014079   -1.365896   -1.430851
C     -0.857235    0.411973    0.043720
C     -0.835757    0.394511    1.566319
C     -1.880131   -0.408876    0.814261
H      3.118734    1.353269    0.348013
H      1.347824    1.864918    0.574105
H      2.466689   -0.667132   -0.718795
H      0.772333   -1.924697   -1.923527
H     -1.040123   -1.633864   -1.651119
H     -1.218115    1.353034   -0.423687
H     -1.286088    1.331333    1.958493
H     -2.899908    0.029745    0.852865
H     -1.699572   -1.503309    0.869011
14

C      2.179550    1.656661    0.298330
C      1.436287    0.708137    0.262412
C      0.545572   -0.424789    0.219065
C      1.039139   -1.644046    0.002496
C     -0.915000   -0.239605    0.532720
C     -1.867484   -0.580716   -0.609966
C     -1.621368    0.869185   -0.228393
H      2.831826    2.489383    0.329762
H      2.095847   -1.792888   -0.185600
H      0.391540   -2.512148    0.009546
H     -1.304338   -0.471785    1.546120
H     -1.322831   -0.817515   -1.550268
H     -2.472138    1.328315    0.316421
H     -1.016602    1.431813   -0.972513
18

C      2.337532    0.449049   -0.576113
C      0.920524    0.023599   -0.834177
C      0.057738   -0.313191    0.147510
C      0.485459   -0.351462    1.594421
C     -1.339985   -0.756763   -0.220007
C     -2.479261   -0.039987    0.499984
C     -2.172252    0.284062   -0.951160
H      2.902023   -0.373450   -0.089248
H      2.354023    1.350571    0.071595
H      2.833619    0.695842   -1.538035
H      0.585609   -0.001081   -1.868096
H      0.763363    0.668411    1.933608
H      1.352756   -1.033190    1.719004
H     -0.335450   -0.724857    2.242040
H     -1.532081   -1.807360   -0.522709
H     -2.110753    0.783590    1.149559
H     -1.706946    1.283135   -1.098973
H     -2.915916   -0.136917   -1.659204
18

C      1.875276   -0.317445   -1.121984
C      0.914952    0.778504   -0.756932
C     -0.049674    0.642880    0.177554
C     -0.873259    1.850865    0.542515
C     -0.226705   -0.647910    0.953043
C     -1.661049   -1.129774    1.163811
C     -0.773812   -1.808244    0.137531
H      2.622552    0.069051   -1.846171
H      1.334753   -1.161967   -1.596172
H      2.411649   -0.674406   -0.217647
H      1.037364    1.735697   -1.257909
H     -1.518509    1.649009    1.422880
H     -0.206698    2.701967    0.798362
H     -1.517271    2.137232   -0.315468
H      0.511588   -0.936933    1.730149
H     -2.404568   -0.491906    0.639061
H     -0.415630   -2.807356    0.461608
H     -1.060959   -1.589265   -0.914229
20

C      3.362152    0.155255    0.014922
C      2.088834   -0.680691    0.055941
C      0.844792    0.193354    0.219746
C     -0.421567   -0.661908    0.159025
C     -1.666498    0.217971    0.332185
C     -2.951474   -0.369796   -0.230613
C     -2.261108    0.778659   -0.950902
H      3.326975    0.864259   -0.838925
H      4.236861   -0.514906   -0.117181
H      3.482974    0.721921    0.962709
H      2.153770   -1.418146    0.885547
H      0.814768    0.947066   -0.597574
H      0.891131    0.725252    1.195767
H     -0.405546   -1.405749    0.984698
H     -0.444180   -1.219191   -0.804616
H     -1.793153    0.842001    1.242860
H     -3.872673   -0.069297    0.311879
H     -2.860290   -1.347394   -0.750945
H     -2.770371    1.758000   -0.830267
H     -1.755395    0.483339   -1.895161
20

C      3.267521    0.323295    0.154650
C      2.039164   -0.567217    0.011527
C      0.765555    0.221421    0.317938
C     -0.488556   -0.621158    0.092197
C     -1.736814    0.228329    0.354928
C     -2.999332   -0.247981   -0.347033
C     -2.275552    0.994682   -0.843694
H      3.200186    1.186019   -0.542210
H      4.180429   -0.260372   -0.088165
H      3.352947    0.698874    1.196736
H      2.126486   -1.428153    0.709553
H      1.998358   -0.954471   -1.029572
H      0.790656    0.593232    1.366315
H     -0.490314   -1.479491    0.797911
H     -0.481159   -1.024428   -0.944981
H     -1.898711    0.699817    1.348116
H     -3.941223   -0.029597    0.199194
H     -2.890300   -1.129657   -1.014497
H     -2.786694    1.946598   -0.587461
H     -1.732647    0.850258   -1.802361
20

C      2.966140   -0.293862    0.679127
C      1.668312    0.428890    0.330630
C      0.829596   -0.389210   -0.660485
C     -0.445127    0.346025   -1.083018
C     -1.483280    0.412198    0.035533
C     -2.382329   -0.808129    0.139365
C     -2.915159    0.479271   -0.467534
H      3.579383   -0.448451   -0.234170
H      2.746225   -1.278241    1.144720
H      3.550149    0.317089    1.399336
H      1.094045    0.596404    1.266695
H      1.915992    1.417767   -0.113135
H      0.563047   -1.372414   -0.214703
H      1.429641   -0.581975   -1.575661
H     -0.214626    1.365381   -1.460478
H     -1.289687    0.972451    0.974744
H     -2.756293   -1.014915    1.164221
H     -2.192854   -1.614030   -0.602196
H     -3.612979    1.032478    0.196021
H     -3.050196    0.433274   -1.569920
20

C      3.114568   -0.380172    0.543767
C      1.918314    0.507170    0.212244
C      0.654617   -0.329845   -0.016671
C     -0.544009    0.562914   -0.350610
C     -1.791480   -0.291712   -0.596682
C     -2.662367   -0.497646    0.631948
C     -3.108763    0.449695   -0.473133
H      4.013184    0.252057    0.704245
H      2.919046   -0.961222    1.470177
H      3.318609   -1.081467   -0.293269
H      1.752144    1.215158    1.053376
H      2.149502    1.095201   -0.702698
H      0.429542   -0.916672    0.901377
H      0.829827   -1.039347   -0.855676
H     -0.328906    1.139845   -1.275882
H     -0.707528    1.287239    0.479409
H     -1.776697   -1.120504   -1.337388
H     -3.205925   -1.462833    0.547890
H     -3.043043    1.521051   -0.187978
H     -3.930635    0.051091   -1.105353
18

C      2.985794    0.663786    0.147363
C      2.396733   -0.191529   -0.691217
C      0.937656   -0.075640   -1.021531
C      0.061986   -0.561123    0.133033
C     -1.416607   -0.388474   -0.231565
C     -2.029352    0.957013    0.126956
C     -2.363732   -0.275910    0.953333
H      2.418817    1.456894    0.625694
H      4.046678    0.574752    0.357310
H      2.992523   -0.959066   -1.176268
H      0.719178   -0.670629   -1.934902
H      0.319657   -0.000249    1.058970
H      0.256878   -1.639698    0.317075
H     -1.838879   -0.893299   -1.126974
H     -2.848414    1.282609   -0.548459
H     -1.359512    1.679354    0.641043
H     -1.896339   -0.282778    1.961417
H     -3.383065   -0.676017    0.768734
18

C      3.043666    0.200966    0.290108
C      2.338262   -0.000858   -0.826947
C      0.881404    0.354506   -0.917328
C      0.034930   -0.616375   -0.095711
C     -1.460014   -0.351178   -0.306357
C     -2.095686    0.628101    0.668258
C     -2.364190   -0.863320    0.803709
H      4.098636   -0.051371    0.318982
H      2.578592    0.620501    1.177111
H      2.839163   -0.400826   -1.703725
H      0.570497    0.296419   -1.982783
H      0.723274    1.397091   -0.564091
H      0.323894   -0.574797    0.978301
H     -1.900400   -0.383604   -1.325837
H     -2.947588    1.203918    0.249059
H     -1.425876    1.041801    1.452469
H     -1.859840   -1.333604    1.675060
H     -3.378724   -1.167372    0.469734
18

C      2.970419   -0.782640    0.217701
C      2.201190   -0.265272   -0.744774
C      0.980796    0.554739   -0.428090
C     -0.142874   -0.317011    0.140730
C     -1.381322    0.536558    0.431312
C     -2.394082    0.578303   -0.701381
C     -2.678571   -0.240051    0.550507
H      3.852787   -1.357866   -0.043066
H      2.730154   -0.634082    1.266083
H      2.481385   -0.414328   -1.783426
H      0.627195    1.038478   -1.364570
H      1.248787    1.357100    0.294146
H      0.189456   -0.780160    1.094537
H     -0.374394   -1.134782   -0.579263
H     -1.309178    1.447020    1.065037
H     -2.956270    1.535784   -0.665597
H     -3.435226    0.214347    1.225085
H     -2.610251   -1.336137    0.385040
16

C      2.878341    0.853534    0.292643
C      2.232717   -0.146217    0.100777
C      1.445025   -1.363331   -0.133288
C     -0.011576   -1.189282    0.296227
C     -0.758798   -0.224408   -0.637109
C     -2.073207    0.300809   -0.080080
C     -0.862935    1.217655   -0.162696
H      3.444287    1.731700    0.461096
H      1.513490   -1.663794   -1.200659
H     -0.051056   -0.862634    1.359574
H     -0.507953   -2.180609    0.236926
H     -0.752909   -0.385041   -1.736644
H     -2.329830   -0.012236    0.954879
H     -2.848447    0.512531   -0.846519
H     -0.399287    1.445597    0.820900
H     -0.917860    1.965726   -0.981390
16

C      3.208212    0.468181    0.814465
C      2.358700   -0.206829    0.288951
C      1.324694   -1.028492   -0.349300
C      0.244089   -0.146762   -0.970746
C     -0.609945    0.548856    0.099730
C     -1.987258    0.990912   -0.369049
C     -1.846594   -0.213117    0.550224
H      3.953624    1.060988    1.275817
H      0.880216   -1.719058    0.398903
H      1.802561   -1.634203   -1.147545
H     -0.372997   -0.751576   -1.671829
H     -0.138430    1.210064    0.857860
H     -2.261875    0.729357   -1.413521
H     -2.379016    1.897734    0.138392
H     -2.028078   -1.189127    0.051117
H     -2.147904   -0.016931    1.600820
16

C      3.125351    0.188761   -0.158546
C      2.117004   -0.471915   -0.150693
C      0.887693   -1.276406   -0.141712
C     -0.180057   -0.658597    0.766350
C     -0.680782    0.682894    0.213230
C     -2.099029    1.025011    0.639032
C     -1.812157    0.598304   -0.793812
H      4.010258    0.769079   -0.165321
H      1.136639   -2.293317    0.228561
H      0.501605   -1.369513   -1.179222
H     -1.016802   -1.385063    0.872477
H      0.241060   -0.493631    1.782026
H      0.007188    1.550723    0.117977
H     -2.222372    2.128083    0.687828
H     -1.840700    1.429138   -1.530506
H     -2.174897   -0.423551   -1.033382
18

C      3.243940    0.210890   -0.662385
C      2.041020   -0.494289   -0.117242
C      0.954377    0.188907    0.257662
C     -0.244372   -0.527142    0.791661
C     -1.421714   -0.382907   -0.175652
C     -2.340713    0.802081    0.078377
C     -2.790289   -0.603328    0.449012
H      4.031247   -0.530473   -0.912940
H      3.644288    0.917935    0.094632
H      2.971016    0.769652   -1.582493
H      2.060330   -1.577543   -0.030081
H      0.927097    1.271781    0.167249
H     -0.475369   -0.157236    1.814529
H     -1.327342   -0.714660   -1.231883
H     -2.829310    1.206607   -0.833039
H     -2.084914    1.441535    0.950366
H     -2.808884   -0.795245    1.543416
H     -3.550408   -1.026566   -0.241180
18

C      2.367301   -0.379673    1.715948
C      1.346185   -0.071665    0.665408
C      0.575347   -1.038707    0.148412
C     -0.444729   -0.747375   -0.914983
C     -1.618658    0.050033   -0.329357
C     -2.543447    0.686146   -1.359959
C     -1.587085    1.550896   -0.551094
H      3.109539   -1.105592    1.321811
H      1.871057   -0.807760    2.612447
H      2.896185    0.551366    2.008696
H      1.238248    0.954025    0.323988
H      0.700832   -2.065539    0.482192
H     -0.839921   -1.711072   -1.300608
H      0.044651   -0.220755   -1.764327
H     -2.134514   -0.299570    0.590128
H     -2.158903    0.564835   -2.395907
H     -0.730846    1.950912   -1.135899
H     -2.091242    2.139494    0.243114
18

C      2.708605   -0.488481   -0.599412
C      2.001703    0.825335   -0.763049
C      0.828449    1.096682   -0.173488
C      0.116141    0.100235    0.689958
C     -1.134568   -0.419511   -0.022276
C     -2.419272    0.342765    0.262984
C     -2.186381   -1.020889    0.896174
H      2.068519   -1.313967   -0.976461
H      2.946487   -0.661447    0.471383
H      3.655609   -0.478210   -1.178417
H      2.460985    1.586214   -1.387282
H      0.361890    2.062279   -0.345713
H     -0.103806    0.552892    1.681438
H     -1.056041   -0.896064   -1.022938
H     -2.336062    1.193189    0.973285
H     -3.152084    0.333833   -0.571236
H     -2.787659   -1.835054    0.439177
H     -1.972514   -0.979800    1.985884
18

C      2.392660   -0.327293    0.545731
C      1.943286    0.834228   -0.293060
C      0.763717    0.878177   -0.937576
C     -0.275421   -0.210431   -0.877082
C     -1.118926   -0.072057    0.394593
C     -2.402492    0.721603    0.210626
C     -2.452743   -0.792987    0.354828
H      3.399043   -0.115203    0.963327
H      1.691859   -0.492048    1.389054
H      2.457900   -1.245540   -0.074452
H      2.619949    1.677346   -0.398394
H      0.543735    1.751313   -1.545275
H      0.201980   -1.212317   -0.901701
H     -0.912141   -0.132887   -1.786508
H     -0.644136   -0.007249    1.396703
H     -2.685446    1.204370    1.170340
H     -2.697422   -1.317875   -0.592863
H     -2.825401   -1.141151    1.341722
16

C      3.519240    0.190855    0.329730
C      2.164322   -0.119997   -0.125863
C      1.047415   -0.375738   -0.500582
C     -0.310139   -0.685473   -0.955475
C     -1.292797   -0.574142    0.212223
C     -2.743000   -0.364805   -0.194460
C     -1.945338    0.787387    0.397692
H      3.715278   -0.329738    1.289634
H      4.252286   -0.147907   -0.431018
H      3.618015    1.286120    0.476370
H     -0.574791   -0.023359   -1.808381
H     -1.146569   -1.179604    1.132526
H     -2.941189   -0.261309   -1.283008
H     -3.486830   -0.800360    0.505765
H     -1.663375    1.569879   -0.339121
H     -2.212529    1.028192    1.448257
16

C      3.376893   -0.781653    0.295399
C      2.075277   -0.153330    0.069755
C      1.002185    0.363836   -0.116030
C     -0.302203    0.992022   -0.341189
C     -1.394929   -0.077568   -0.350454
C     -2.063445   -0.303660    0.996009
C     -2.798295    0.444096   -0.107878
H      4.147410    0.003924    0.436873
H      3.642910   -1.406788   -0.581692
H      3.327750   -1.418910    1.202243
H     -0.287719    1.502443   -1.326668
H     -0.472295    1.755187    0.449705
H     -1.323554   -0.959888   -1.023344
H     -2.434118   -1.349023    1.058960
H     -3.606396   -0.144856   -0.591809
H     -2.889472    1.534167    0.084409
18

C      2.644789   -0.311320    0.150977
C      1.749948    0.793842   -0.403089
C      0.308439    0.564873   -0.039186
C     -0.409040   -0.420506   -0.612410
C     -1.867385   -0.732293   -0.330309
C     -2.814588    0.456803   -0.215590
C     -2.448133   -0.357649    1.021580
H      2.375719   -1.292107   -0.295341
H      2.543240   -0.370854    1.255795
H      3.704176   -0.089985   -0.097229
H      1.857879    0.849465   -1.508075
H      2.079754    1.765834    0.022694
H     -0.139898    1.245159    0.675497
H      0.077440   -1.054192   -1.348266
H     -2.322625   -1.622146   -0.813481
H     -2.282263    1.430482   -0.208360
H     -1.787325    0.165338    1.742269
H     -3.270124   -1.020744    1.362535
18

C      3.039062   -0.469470   -0.228480
C      1.533221   -0.308794   -0.389632
C      0.942729    0.544005    0.701193
C     -0.340657    0.932648    0.689074
C     -1.288166    0.561053   -0.420388
C     -2.745524    0.445092   -0.001808
C     -1.929070   -0.809118   -0.264566
H      3.272935   -0.976171    0.732215
H      3.533494    0.524642   -0.254190
H      3.433854   -1.083862   -1.064149
H      1.048478   -1.308686   -0.393075
H      1.573484    0.873914    1.522725
H     -0.699163    1.568930    1.493359
H     -1.101676    0.895647   -1.463081
H     -2.966609    0.616409    1.073882
H     -3.476172    0.680039   -0.804347
H     -2.171924   -1.313768   -1.223420
H     -1.658296   -1.372510    0.654697
18

C      2.347675    0.382890    0.393690
C      1.450993    0.433459   -0.839393
C      0.663639   -0.842887   -0.991516
C     -0.488976   -1.097285   -0.348457
C     -1.139682   -0.123212    0.594863
C     -1.983575    0.925080   -0.110570
C     -2.653294   -0.210653    0.646035
H      3.052612   -0.472782    0.320719
H      1.742825    0.277341    1.317635
H      2.935931    1.322045    0.462842
H      2.094787    0.560723   -1.735962
H      0.776008    1.313929   -0.787627
H      1.052386   -1.598804   -1.667844
H     -0.966577   -2.059547   -0.510903
H     -0.638045    0.193794    1.533300
H     -2.009111    1.854875    0.496875
H     -3.129025   -0.957375   -0.024738
H     -3.108571    0.098409    1.611064
16

C      3.297144    0.115787   -0.132169
C      2.177269   -0.178431    0.521730
C      0.873544   -0.172664   -0.160521
C     -0.247868   -0.466220    0.498612
C     -1.567231   -0.472425   -0.207865
C     -2.734814   -0.095712    0.687456
C     -2.210533    0.894091   -0.341729
H      3.282296    0.367989   -1.185443
H      4.245866    0.105939    0.388526
H      2.234677   -0.425338    1.575524
H      0.824421    0.076585   -1.215169
H     -0.211611   -0.729432    1.549969
H     -1.778630   -1.203054   -1.017955
H     -3.664430   -0.575217    0.313091
H     -2.867239    1.015653   -1.229377
H     -1.652861    1.742448    0.109605
16

C      2.733402   -0.592267   -0.965318
C      1.516643   -0.472097   -0.442294
C      1.132803    0.732278    0.320476
C     -0.077514    0.903897    0.864139
C     -1.171356   -0.119191    0.772209
C     -2.564825    0.485340    0.791059
C     -1.984010   -0.055299   -0.506360
H      2.997402   -1.482111   -1.521962
H      3.475345    0.187822   -0.846521
H      0.809863   -1.279274   -0.588815
H      1.863768    1.522400    0.449163
H     -0.269440    1.815382    1.418034
H     -1.063393   -1.116704    1.249887
H     -3.285552   -0.245230    1.216621
H     -2.417537   -1.025399   -0.830089
H     -1.695599    0.740452   -1.225941
14

C      3.651039   -0.257806    0.210358
C      2.479998   -0.509802    0.074473
C      1.083302   -0.811180   -0.088270
C      0.150476    0.001979    0.404616
C     -1.305666   -0.324924    0.254245
C     -1.892495   -0.013713   -1.117286
C     -2.214593    0.875239    0.074247
H      4.679032   -0.036468    0.329713
H      0.801630   -1.710724   -0.621669
H      0.437297    0.892029    0.954105
H     -1.746207   -1.202918    0.771641
H     -1.156100    0.494489   -1.777972
H     -1.723243    1.872180    0.039965
H     -3.244470    0.731620    0.461966
14

C      2.036265    0.963688   -1.276758
C      1.651334    0.036170   -0.608542
C      1.213828   -1.082457    0.185014
C     -0.022742   -1.267772    0.682449
C     -1.269264   -0.400750    0.580241
C     -1.575895    0.269892   -0.751664
C     -1.146092    1.104706    0.455154
H      2.372643    1.777969   -1.862898
H      1.956795   -1.843637    0.387145
H     -0.169887   -2.179481    1.248282
H     -2.177622   -0.746016    1.117602
H     -0.754308    0.168110   -1.484902
H     -1.985507    1.663997    0.918091
H     -0.129549    1.535581    0.410787
16

C      2.956942   -0.637292    0.149282
C      2.089707    0.612962    0.073538
C      0.677249    0.250530   -0.083409
C     -0.484202   -0.046863   -0.211933
C     -1.895659   -0.409601   -0.369345
C     -2.681730   -0.270652    0.921009
C     -2.860286    0.745758   -0.196810
H      2.855671   -1.235303   -0.781960
H      4.021170   -0.343626    0.268149
H      2.661398   -1.260885    1.020417
H      2.403953    1.232890   -0.792456
H      2.210758    1.207610    1.003464
H     -2.200752   -1.236473   -1.045272
H     -3.532150   -0.985636    0.921962
H     -3.815681    0.642582   -0.754107
H     -2.406388    1.733999    0.031762
14

C      2.948816    0.776987   -0.342547
C      2.418697   -0.252023    0.309003
C      0.996410   -0.461655    0.320712
C     -0.196502   -0.636371    0.329753
C     -1.650467   -0.848188    0.340183
C     -2.355498   -0.493739   -0.961832
C     -2.463598    0.426834    0.244890
H      2.324540    1.481337   -0.879494
H      4.021225    0.922428   -0.342775
H      3.060134   -0.944000    0.839065
H     -2.099582   -1.669817    0.935935
H     -1.657210   -0.056068   -1.709215
H     -3.453340    0.377749    0.744611
H     -1.893625    1.376527    0.141842
12

C      3.575397   -1.933360   -0.181125
C      2.560210   -1.286510   -0.241941
C      1.371183   -0.528998   -0.313084
C      0.355516    0.117673   -0.373424
C     -0.879312    0.904267   -0.448500
C     -1.375455    1.344667    0.916137
C     -2.088146    0.229117    0.166402
H      4.466827   -2.501321   -0.127724
H     -1.057158    1.609076   -1.288333
H     -1.948585    2.291629    0.820109
H     -3.063487    0.529743   -0.272169
H     -1.916990   -0.775983    0.608429
20

C      2.572562   -0.352514   -0.825853
C      1.262175   -0.719292   -0.145718
C      0.653673    0.533103    0.515608
C     -0.743913    0.436379    1.147514
C     -1.543618   -0.874146    1.076085
C     -0.537219    1.251590   -0.138497
C     -1.067541    0.728930   -1.483036
H      2.996206   -1.241051   -1.339898
H      3.307951    0.019723   -0.080819
H      0.611413   -1.186100   -0.908155
H      1.467830   -1.475235    0.641946
H      1.336023    1.190237    1.097516
H     -0.898897    1.075246    2.043174
H     -1.537978   -1.343946    2.081251
H     -1.150740   -1.622340    0.364103
H     -2.596703   -0.644586    0.811079
H     -0.507226    2.353210    0.002185
H     -1.394281   -0.327276   -1.473306
H     -1.945037    1.341184   -1.776677
H     -0.284682    0.856883   -2.259411
20

C      2.322632   -0.708352   -0.753586
C      1.044904   -0.955907    0.035210
C      0.582266    0.318806    0.745504
C     -0.891632    0.393483    1.165600
C     -1.823982   -0.788962    0.854642
C     -0.382912    1.250102   -0.000847
C     -0.832784    0.885634   -1.425036
H      2.620596   -1.643303   -1.271776
H      2.154524    0.082009   -1.515119
H      3.142459   -0.396631   -0.071891
H      1.214327   -1.758030    0.784543
H      1.279772    0.824080    1.447522
H     -1.082629    0.971031    2.095157
H     -1.895536   -1.431088    1.756665
H     -1.491658   -1.426448    0.012682
H     -2.837122   -0.399338    0.623925
H     -0.278545    2.327493    0.248655
H     -0.710248   -0.183645   -1.684627
H     -1.900308    1.161760   -1.550183
H     -0.234124    1.477307   -2.147945
20

C      2.479764   -0.381105   -0.131823
C      1.014368   -0.786458   -0.240638
C      0.220840   -0.230898    0.961565
C     -1.310518   -0.391778    1.020698
C     -2.032304   -1.031692   -0.177305
C     -0.680990    0.994761    0.790958
C     -0.758507    1.674957   -0.586360
H      3.046877   -0.795540   -0.991984
H      2.572331    0.725974   -0.143753
H      2.922289   -0.776173    0.807568
H      0.645911   -0.442216   -1.224918
H      0.952648   -1.895493   -0.221345
H      0.686627   -0.322310    1.966206
H     -2.477788   -1.988348    0.163902
H     -1.394422   -1.264474   -1.048658
H     -2.864943   -0.373113   -0.501776
H     -0.684053    1.655123    1.683596
H     -1.032756    1.005138   -1.422618
H     -1.524939    2.475909   -0.540488
H      0.219565    2.147737   -0.813735
20

C     -1.802859    0.683858    1.377987
C     -0.624180    1.408603    0.713500
C     -0.315222    1.104164   -0.760762
C     -1.131222    0.043231   -1.516670
C      0.654626    0.643731    0.338111
C      0.766767   -0.853777    0.691717
C      2.021779   -1.447261    0.062471
H     -2.759563    0.976827    0.897575
H     -1.717728   -0.416002    1.451475
H     -0.475419    2.477228    0.976162
H      0.071759    1.963909   -1.348364
H     -1.812662    0.560749   -2.222951
H     -1.755764   -0.604049   -0.872670
H     -0.442531   -0.594587   -2.108836
H      1.569602    1.266083    0.444287
H      0.845453   -0.949235    1.795680
H     -0.095643   -1.462029    0.360611
H      2.103782   -2.520916    0.334051
H      1.972235   -1.362111   -1.044098
H      2.926788   -0.918414    0.430726
20

C      2.824751    0.577577    0.153709
C      1.750215   -0.339217    0.717640
C      0.489015   -0.260191   -0.148250
C     -0.804531   -0.640437    0.574711
C     -1.850353   -1.370896   -0.275451
C     -0.507457    0.829943    0.251441
C     -1.265791    1.486713   -0.907456
H      3.107941    0.259343   -0.872390
H      3.724522    0.552494    0.803855
H      2.123451   -1.385381    0.713962
H      1.548088   -0.047425    1.771745
H      0.552874   -0.526239   -1.226072
H     -0.723058   -0.896668    1.653186
H     -1.845139   -2.446157   -0.001626
H     -1.655181   -1.297796   -1.365468
H     -2.857283   -0.958949   -0.056150
H     -0.244937    1.450639    1.135241
H     -2.333796    1.604949   -0.629856
H     -0.837751    2.494281   -1.088567
H     -1.195580    0.913417   -1.855111
20

C      2.842594   -0.360469   -0.063105
C      1.630562   -0.680255    0.799780
C      0.333291   -0.521305    0.000413
C     -0.913692   -0.285330    0.853909
C     -2.208826   -0.914040    0.327090
C     -0.295894    0.871774    0.057514
C     -0.998505    1.329390   -1.225536
H      2.867757   -1.029602   -0.948986
H      2.806520    0.697719   -0.399291
H      3.767839   -0.519429    0.528747
H      1.646736   -0.055286    1.720119
H      0.194048   -1.111021   -0.931661
H     -0.767161   -0.211917    1.953250
H     -2.445520   -1.809228    0.938475
H     -2.137923   -1.236370   -0.732466
H     -3.041405   -0.187915    0.433222
H      0.225239    1.631628    0.679131
H     -1.196972    0.498717   -1.934224
H     -1.956880    1.824659   -0.964983
H     -0.351808    2.068280   -1.742304
20

C      2.699502   -0.248059   -0.139417
C      1.615486    0.190622    0.838160
C      0.235797   -0.252233    0.342991
C     -0.906367    0.625998    0.862309
C     -2.209391   -0.147316    1.111654
C     -0.454193    0.721525   -0.604746
C     -1.311931    0.071490   -1.697488
H      2.536138    0.224202   -1.131636
H      2.691180   -1.353144   -0.253769
H      3.694299    0.062779    0.243544
H      1.805802   -0.282840    1.824827
H      1.671123    1.294017    0.973154
H      0.030638   -1.336642    0.206242
H     -2.163278   -1.213282    0.804212
H     -3.048469    0.351683    0.583429
H     -2.427339   -0.120555    2.198890
H      0.104763    1.649403   -0.851271
H     -1.609360   -0.970753   -1.458603
H     -2.223915    0.682228   -1.861044
H     -0.730484    0.050877   -2.642345
20

C     -1.504733    1.906953    0.758981
C     -0.347583    1.349408   -0.060568
C     -0.603167    0.059717   -0.846914
C     -2.002391   -0.561333   -0.775704
C      0.189365    0.017418    0.459785
C      1.702949   -0.169376    0.299751
C      2.057301   -1.651544    0.291858
H     -2.126252    2.570429    0.122735
H     -1.108492    2.484715    1.619566
H      0.395985    2.046504   -0.503588
H     -0.020493   -0.036249   -1.788344
H     -2.689295    0.009405   -1.434480
H     -1.950140   -1.607816   -1.141008
H     -2.418453   -0.574295    0.254304
H     -0.321676   -0.399979    1.355704
H      2.082254    0.297794   -0.636188
H      2.212758    0.319943    1.156778
H      1.564681   -2.159267   -0.564778
H      3.156752   -1.771264    0.192842
H      1.730630   -2.131162    1.239266
20

C      2.758056   -0.047537   -0.012917
C      1.426396   -0.561039    0.512764
C      0.322473   -0.301134   -0.524660
C     -1.137689   -0.512247   -0.099344
C     -1.415846   -0.972685    1.336198
C     -0.577063    0.903417   -0.244059
C     -1.043864    1.656979   -1.488791
H      3.046568   -0.590195   -0.938473
H      3.549326   -0.190434    0.752947
H      1.505396   -1.654490    0.691815
H      1.223686   -0.059156    1.482002
H      0.518477   -0.547246   -1.591457
H     -1.802141   -0.876687   -0.912456
H     -1.022545   -2.000728    1.478479
H     -2.513440   -0.993641    1.497590
H     -0.975049   -0.301458    2.102260
H     -0.380576    1.472312    0.690348
H     -1.207225    0.983249   -2.357802
H     -1.995677    2.180076   -1.261234
H     -0.279263    2.412645   -1.764117
20

C      2.607557    0.049213    0.178209
C      1.333544   -0.701911    0.537264
C      0.235882   -0.444937   -0.494986
C     -1.213919   -0.609782   -0.025335
C     -1.454441   -1.034854    1.427537
C     -0.619035    0.786401   -0.200755
C     -1.097402    1.543453   -1.438920
H      2.990918   -0.290514   -0.807521
H      2.408819    1.141155    0.141511
H      3.378981   -0.145914    0.951728
H      1.541076   -1.791476    0.594764
H      0.417475   -0.688290   -1.564526
H     -1.921767   -0.954634   -0.809632
H     -0.809793   -0.490376    2.150222
H     -1.265064   -2.123961    1.525592
H     -2.513920   -0.835311    1.690128
H     -0.369607    1.353958    0.722574
H     -1.310867    0.866952   -2.294853
H     -2.022870    2.102018   -1.188210
H     -0.315569    2.268810   -1.745697
20

C      2.359689   -1.120987   -0.271257
C      1.516089    0.054325    0.206609
C      0.285334    0.228012   -0.700979
C     -1.035235   -0.425063   -0.252919
C     -1.068449   -1.276064    1.022978
C     -0.806570    1.068409   -0.041581
C     -1.550680    1.975580   -1.017228
H      2.685033   -0.959141   -1.321219
H      3.261607   -1.217054    0.369318
H      1.779437   -2.065451   -0.211823
H      1.271114   -0.080176    1.279761
H      2.128926    0.977571    0.129676
H     -1.702783   -0.709502   -1.094253
H     -0.799522   -0.704548    1.935728
H     -0.390442   -2.146969    0.914124
H     -2.099762   -1.659921    1.165453
H     -0.617893    1.422436    0.995661
H     -2.584931    2.137146   -0.648763
H     -1.033522    2.956123   -1.068610
H     -1.597438    1.545273   -2.041584
20

C     -2.054960   -1.944802   -0.174890
C     -0.996836   -0.930712   -0.606074
C      0.029500   -0.573693    0.469093
C      1.457487   -0.370881   -0.064548
C      2.292290    0.426164    0.931145
C     -1.079043    0.423847    0.099290
C     -0.723751    1.638418   -0.765868
H     -2.961766   -1.826294   -0.803355
H     -2.334080   -1.850426    0.896984
H     -0.634778   -0.941385   -1.656960
H     -0.101103   -1.096429    1.441778
H      1.923024   -1.371216   -0.193561
H      1.486628    0.130856   -1.053153
H      3.324976    0.544362    0.540622
H      1.853817    1.433842    1.087097
H      2.339784   -0.105096    1.905705
H     -1.864365    0.538971    0.877284
H     -0.280216    1.362996   -1.745192
H     -0.024842    2.300236   -0.214978
H     -1.651765    2.211242   -0.970416
18

C      2.501046    0.028328    1.004876
C      1.576814   -0.680557    0.355804
C      0.860785   -0.107837   -0.840476
C     -0.224640    0.953374   -0.596050
C     -0.564545    1.386825    0.839687
C     -0.620320   -0.460348   -1.040233
C     -1.323973   -1.379939   -0.028735
H      2.728787    1.051263    0.720547
H      1.413789   -1.713542    0.643595
H      1.440999    0.041834   -1.775653
H     -0.326288    1.713359   -1.399901
H     -0.234702    0.678188    1.623387
H     -0.072442    2.360689    1.040917
H     -1.661860    1.528128    0.926459
H     -0.938914   -0.525936   -2.102417
H     -0.903635   -1.346406    0.994346
H     -1.254219   -2.426323   -0.391088
H     -2.396683   -1.101099    0.024935
18

C      2.161779   -0.977928   -1.187049
C      1.341089    0.035366   -0.912963
C      0.974911    0.381389    0.503810
C     -0.250985   -0.308502    1.117651
C     -1.037137   -1.331198    0.280621
C     -0.322100    1.172376    0.721805
C     -1.186355    1.563060   -0.488867
H      2.407555   -1.205285   -2.218225
H      2.586458   -1.583078   -0.391699
H      1.788772    0.627111    1.218857
H     -0.188522   -0.477264    2.213824
H     -0.691330   -2.350519    0.549878
H     -2.115164   -1.251793    0.531590
H     -0.920241   -1.214631   -0.814141
H     -0.307207    1.865462    1.589884
H     -1.011860    0.950492   -1.394518
H     -0.972111    2.619690   -0.751028
H     -2.257552    1.485252   -0.209419
18

C     -0.971582    0.515476    1.392011
C     -0.678397    1.067010   -0.002465
C     -0.770871    0.085998   -1.175025
C     -1.178000   -1.366601   -0.876776
C      0.600933    0.581979   -0.698820
C      1.479311   -0.381667    0.060517
C      2.252902    0.040812    1.062654
H     -0.476605    1.149935    2.155995
H     -2.066975    0.512864    1.569083
H     -0.978265    2.109318   -0.241930
H     -1.117559    0.539986   -2.127611
H     -2.285133   -1.439265   -0.891905
H     -0.819214   -1.742083    0.103359
H     -0.772740   -2.024618   -1.673045
H      1.085136    1.343088   -1.346799
H      1.551974   -1.415520   -0.262628
H      2.234880    1.078977    1.380624
H      2.910207   -0.655689    1.572762
18

C      2.694547   -0.175349   -0.865680
C      1.917444   -0.052367    0.210853
C      0.556373   -0.692736    0.263035
C     -0.597566    0.122639    0.862194
C     -0.298866    1.530999    1.388451
C     -0.478476   -0.033821   -0.651827
C     -1.485555   -0.995339   -1.282079
H      2.356425   -0.712975   -1.746521
H      2.305138    0.465144    1.081893
H      0.483819   -1.797331    0.361022
H     -1.382903   -0.481185    1.365874
H      0.177239    1.454266    2.387918
H     -1.254228    2.085338    1.494581
H      0.366222    2.113029    0.715280
H     -0.143199    0.856363   -1.228376
H     -1.742222   -1.842989   -0.610209
H     -1.058919   -1.403463   -2.221707
H     -2.415274   -0.440223   -1.524702
18

C      2.466208   -1.278868    0.545244
C      1.513842   -0.425501    0.919695
C      0.728426    0.357264   -0.092568
C     -0.584210   -0.252709   -0.598693
C     -0.983103   -1.637141   -0.074873
C     -0.608918    0.866634    0.441317
C     -1.040714    2.231391   -0.094696
H      2.697495   -1.431780   -0.504656
H      3.017194   -1.831754    1.297712
H      1.263548    1.031264   -0.796039
H     -0.852908    0.024144   -1.640905
H     -0.387262   -2.411980   -0.600449
H     -0.830151   -1.746277    1.020044
H     -2.057338   -1.808880   -0.293451
H     -0.875887    0.582343    1.483093
H     -0.715139    2.398510   -1.144421
H     -0.604103    3.027312    0.543502
H     -2.146980    2.306027   -0.049844
18

C      2.564702   -0.388747   -0.305430
C      1.384101   -0.539057   -0.910277
C      0.303034    0.502343   -0.777041
C     -1.098306   -0.052414   -0.463872
C     -1.298543   -1.569235   -0.346942
C     -0.261166    0.567452    0.644514
C     -0.690577    1.969463    1.067198
H      3.345224   -1.129366   -0.445770
H      2.759878    0.469115    0.331191
H      1.233926   -1.384497   -1.574971
H     -1.936909    0.566175   -0.849113
H     -0.496963   -2.070061    0.236914
H     -2.266469   -1.765640    0.158879
H     -1.336616   -2.012620   -1.363530
H      0.177250   -0.120515    1.401160
H     -1.032237    2.583651    0.205409
H      0.167599    2.482310    1.548966
H     -1.517928    1.891643    1.802728
18

C     -1.301371   -1.705165    0.591163
C     -1.163553   -0.419618   -0.215803
C      0.228189   -0.074685   -0.757885
C      1.349116   -1.034635   -0.460647
C      2.561050   -0.590046   -0.121714
C     -0.316204    0.640004    0.479361
C     -0.765762    2.082000    0.245633
H     -2.127518   -1.598967    1.324444
H     -1.521017   -2.551758   -0.091758
H     -2.023532   -0.052375   -0.816238
H      0.260879    0.525514   -1.692538
H      1.189253   -2.101843   -0.580708
H      3.366519   -1.293741    0.061218
H      2.756900    0.473622   -0.023763
H      0.129935    0.358672    1.459298
H     -1.197357    2.233837   -0.767550
H     -1.531651    2.351208    1.002170
H      0.106125    2.757976    0.365317
18

C     -1.340000    0.676112    1.469333
C     -0.289637    0.805016    0.373204
C     -0.576990    0.111587   -0.960332
C     -1.909115   -0.631375   -1.109525
C      0.404350   -0.511987    0.030746
C      1.849369   -0.358662   -0.345717
C      2.784229   -0.176977    0.588926
H     -2.091408    1.485517    1.362287
H     -0.853017    0.752567    2.463549
H      0.333492    1.723897    0.314431
H     -0.140298    0.618206   -1.848254
H     -2.722686    0.105838   -1.271546
H     -2.157910   -1.254619   -0.224095
H     -1.852965   -1.296244   -1.996112
H      0.074208   -1.410142    0.597628
H      2.144285   -0.436460   -1.388103
H      3.827368   -0.087243    0.303921
H      2.516724   -0.115029    1.639658
16

C      2.108510   -1.035648   -1.339146
C      1.481036   -0.800373   -0.336794
C      0.717464   -0.515814    0.892998
C     -0.810514   -0.594874    0.791365
C     -1.401836   -0.956425   -0.570818
C     -0.121649    0.767699    0.917895
C     -0.095860    1.689667   -0.313280
H      2.658621   -1.241697   -2.219304
H      1.143454   -0.826671    1.869958
H     -1.323448   -0.947721    1.711182
H     -2.425968   -0.537907   -0.655823
H     -1.443003   -2.060008   -0.678884
H     -0.213504    1.237299    1.920297
H      0.768321    2.380345   -0.227045
H     -1.026970    2.293020   -0.329823
H     -0.014654    1.149106   -1.278492
16

C      2.367343   -1.578218    0.942139
C      1.692765   -0.917548    0.192141
C      0.873730   -0.109502   -0.727756
C     -0.643096   -0.330044   -0.596419
C     -1.160501   -1.386960    0.389413
C      0.008648    0.888691    0.041270
C     -0.222758    2.200610   -0.703528
H      2.958670   -2.158176    1.600777
H     -1.214188   -0.151786   -1.532639
H     -0.678250   -1.322443    1.388083
H     -2.252803   -1.246890    0.525577
H     -0.984618   -2.398301   -0.032395
H      0.096675    0.900074    1.150821
H      0.572290    2.922536   -0.423808
H     -1.205985    2.620720   -0.406199
H     -0.207922    2.067236   -1.807477
16

C      2.667709   -1.377568    0.592382
C      1.770646   -0.792497    0.038769
C      0.677192   -0.077229   -0.639090
C     -0.751023   -0.528465   -0.317574
C     -0.913605   -1.674330    0.675254
C     -0.191718    0.744752    0.309657
C     -0.737783    2.045273   -0.279159
H      3.454779   -1.891292    1.078657
H      0.845687    0.339953   -1.654756
H     -1.495809   -0.396432   -1.131777
H     -1.889135   -1.581570    1.196033
H     -0.873499   -2.643213    0.135826
H      0.058810    0.698147    1.393189
H      0.003361    2.855672   -0.119883
H     -0.947427    1.963865   -1.367898
H     -1.678185    2.314934    0.244657
16

C      3.195609   -0.035295   -0.770638
C      1.991290    0.010156   -0.740337
C      0.524517    0.065853   -0.704904
C     -0.104738   -0.899841    0.294796
C     -1.446644   -1.461000   -0.159022
C     -0.040715    0.596871    0.610320
C     -1.332212    1.412135    0.480922
H      4.252787   -0.075251   -0.796924
H     -0.042260    0.277024   -1.637718
H      0.593459   -1.544786    0.872043
H     -1.281376   -2.349866   -0.802448
H     -2.047324   -1.752749    0.727185
H      0.693378    0.872813    1.398717
H     -1.076518    2.491818    0.469004
H     -1.898927    1.179979   -0.446038
H     -1.980327    1.212138    1.359329
18

C      1.563155    0.332782   -0.828118
C      1.052209    1.462748    0.029302
C     -0.258946    1.658321    0.240989
C     -1.298966    0.729445   -0.330954
C     -1.264468   -0.679887    0.296648
C      0.123843   -1.174255    0.751672
C      1.211652   -1.087276   -0.335238
H      1.241135    0.477102   -1.882000
H      1.771100    2.144149    0.472090
H     -0.579256    2.504315    0.841625
H     -2.305631    1.170325   -0.166159
H     -1.160081    0.654010   -1.431206
H     -1.932978   -0.687570    1.185121
H     -1.687529   -1.404757   -0.432485
H      0.448290   -0.616098    1.657015
H      0.025959   -2.237580    1.060756
H      2.141814   -1.534273    0.074829
H      0.908698   -1.711500   -1.203884
18

C      0.700670   -1.081702   -0.866677
C      1.635540   -0.046471   -0.243046
C      1.100320    1.361032   -0.352616
C     -0.185386    1.733768   -0.185861
C     -1.367830    0.800523   -0.053938
C     -1.093784   -0.407973    0.850136
C     -0.392704   -1.554018    0.101039
H      1.279644   -1.960880   -1.223664
H      1.839025   -0.289568    0.822174
H      2.608893   -0.083539   -0.777603
H      1.833919    2.149030   -0.498011
H     -0.405669    2.797203   -0.214791
H     -2.212927    1.379568    0.376994
H     -1.688092    0.464471   -1.064017
H     -0.490355   -0.096915    1.731280
H     -2.060720   -0.791842    1.242314
H      0.047028   -2.254521    0.843897
H     -1.147573   -2.118164   -0.487609
16

C     -0.230592   -1.637066   -0.300179
C      1.220786   -1.273039   -0.293135
C      1.755132   -0.044870   -0.217044
C      1.090862    1.257125    0.040275
C     -0.215146    1.529318    0.165641
C     -1.348468    0.578671   -0.059444
C     -1.113333   -0.779089    0.590968
H     -0.617858   -1.704388   -1.339793
H      1.903231   -2.100917   -0.439341
H      2.835273    0.006626   -0.285127
H      1.767481    2.090623    0.186582
H     -0.486815    2.547913    0.417680
H     -1.530624    0.474460   -1.151308
H     -2.266744    1.025997    0.379120
H     -0.673038   -0.674063    1.607226
H     -2.090148   -1.297300    0.697881
16

C     -1.311822    1.115871    0.148731
C      0.077432    1.664967    0.399107
C      1.251026    1.004694    0.309081
C      1.457054   -0.365375   -0.285137
C      0.509218   -1.392097    0.267176
C     -0.809351   -1.322567    0.048045
C     -1.425345   -0.162523   -0.680691
H     -1.850792    1.003854    1.114250
H      0.109798    2.670478    0.807290
H      2.145912    1.535652    0.621911
H      1.354832   -0.310012   -1.389621
H      2.497681   -0.691182   -0.072801
H      0.910736   -2.239773    0.814606
H     -1.452318   -2.113922    0.421950
H     -0.961106   -0.022951   -1.679799
H     -2.502955   -0.375113   -0.844098
