14

C     -1.596287    0.453347    0.041518
C     -0.548257   -0.277598   -0.797039
C      0.637753   -0.777489    0.041208
C      1.527274    0.360257    0.541321
H     -1.186685    1.404349    0.440491
H     -1.935391   -0.186443    0.883817
H     -2.474221    0.694687   -0.594059
H     -0.188240    0.390891   -1.609137
H     -1.034798   -1.155237   -1.275199
H      0.271466   -1.372060    0.906257
H      1.255840   -1.450659   -0.591580
H      2.420771   -0.064587    1.045445
H      0.983541    0.990531    1.275123
H      1.867232    0.990010   -0.308166
12

C      1.436637    0.019162   -0.262801
C      0.161223   -0.065111    0.575847
C     -1.017082   -0.747169   -0.101276
C     -1.006569    0.765197    0.066973
H      2.041532    0.883600    0.081207
H      1.225550    0.141769   -1.347375
H      2.028305   -0.908575   -0.118839
H      0.221321   -0.188324    1.678145
H     -1.706987   -1.271368    0.593312
H     -0.855337   -1.086011   -1.147121
H     -0.838488    1.323401   -0.879021
H     -1.690104    1.133429    0.860948
17

C      1.735308    0.602042    0.155326
C      0.635867    0.482161   -0.903886
C     -0.683043   -0.145852   -0.395865
C     -0.499427   -1.596292    0.070922
C     -1.352063    0.700040    0.696042
H      2.022740   -0.396079    0.544636
H      1.410710    1.252250    0.993352
H      2.635450    1.061487   -0.304661
H      1.024782   -0.126480   -1.749250
H      0.422365    1.495959   -1.307580
H     -1.379821   -0.168431   -1.263294
H      0.015481   -2.191503   -0.712948
H     -1.491146   -2.059649    0.260745
H      0.091268   -1.643883    1.009779
H     -0.768316    0.671156    1.639993
H     -2.370407    0.308391    0.905383
H     -1.449749    1.754682    0.361305
15

C      0.383149    1.911007    0.306860
C      0.166468    1.071197   -0.712551
C     -0.105778   -0.403839   -0.519202
C      1.084705   -1.110206    0.139773
C     -1.396546   -0.634482    0.275265
H      0.372916    1.564762    1.335176
H      0.573858    2.961252    0.111812
H      0.186805    1.465468   -1.724458
H     -0.247096   -0.854008   -1.526548
H      1.245089   -0.740484    1.174935
H      0.901859   -2.205261    0.179674
H      2.008204   -0.934124   -0.452376
H     -2.246707   -0.118341   -0.220034
H     -1.299586   -0.252598    1.313889
H     -1.627341   -1.720344    0.317785
13

C      2.484433   -0.204389   -0.353340
C      1.288787   -0.050334   -0.378660
C     -0.169749    0.137864   -0.410495
C     -0.875218   -1.184000   -0.100063
C     -0.579487    1.224021    0.586379
H      3.533759   -0.339637   -0.330955
H     -0.457449    0.464704   -1.433091
H     -1.976788   -1.049831   -0.152802
H     -0.585365   -1.956855   -0.844299
H     -0.606463   -1.545352    0.916461
H     -1.677439    1.387650    0.542040
H     -0.302089    0.933031    1.622961
H     -0.076931    2.183128    0.335864
15

C      1.693464    0.310218    0.379816
C      0.383120    0.450011   -0.400263
C     -0.826135    0.749915    0.482596
C     -1.444986   -0.583473    0.083949
C     -0.239497   -0.886894   -0.796137
H      1.999659    1.302444    0.772726
H      1.581998   -0.395248    1.231690
H      2.490001   -0.065687   -0.296104
H      0.467374    1.151689   -1.259770
H     -0.596601    0.801511    1.570144
H     -1.415758    1.616475    0.111228
H     -2.382341   -0.461787   -0.501832
H     -1.533570   -1.285446    0.941851
H     -0.504375   -0.926432   -1.875384
H      0.327649   -1.777296   -0.444510
15

C      1.227815   -1.130996   -0.036138
C      0.851008    0.274604   -0.519034
C      0.392110    1.246994    0.564040
C     -0.616229    0.701854   -0.443556
C     -1.639495   -0.296135    0.111288
H      2.333764   -1.220355   -0.024493
H      0.858720   -1.356055    0.985921
H      0.823456   -1.884202   -0.743862
H      1.425446    0.730739   -1.353307
H      0.325427    0.836080    1.594196
H      0.689307    2.300495    0.377831
H     -0.932944    1.417479   -1.231991
H     -1.770321   -1.129016   -0.610452
H     -1.353660   -0.711791    1.099742
H     -2.614403    0.220306    0.229816
15

C      1.862823   -0.686638    0.144182
C      0.585637    0.080637    0.485318
C      0.160612    1.115398   -0.551518
C     -0.602714   -0.199202   -0.426710
C     -1.974288   -0.087455    0.238571
H      2.741963   -0.096319    0.476095
H      1.859757   -1.655266    0.685610
H      1.959698   -0.888702   -0.944688
H      0.368700    0.351445    1.541187
H     -0.341442    2.008494   -0.121561
H      0.801076    1.183706   -1.456858
H     -0.450083   -0.916585   -1.261768
H     -2.727664    0.195908   -0.525410
H     -2.252640   -1.073826    0.663962
H     -1.991435    0.668406    1.053587
17

C     -2.191447   -0.386780    0.382078
C     -1.256408    0.304388   -0.609954
C      0.080459    0.718992    0.023515
C      0.979013   -0.484317    0.343862
C      2.342703   -0.030387    0.856838
H     -2.341718    0.247261    1.281619
H     -1.782498   -1.372006    0.687356
H     -3.177950   -0.556731   -0.098439
H     -1.764222    1.218458   -0.987209
H     -1.077027   -0.363316   -1.480539
H     -0.107551    1.308518    0.947784
H      0.609976    1.380975   -0.696479
H      1.126577   -1.098864   -0.570783
H      0.504563   -1.117612    1.122987
H      2.967428   -0.918710    1.088450
H      2.225297    0.572597    1.782459
H      2.862805    0.577533    0.086129
15

C      2.004549    0.608051    0.678565
C      1.070969    0.907707   -0.229210
C      0.324592   -0.161384   -0.982328
C     -0.646839   -0.940113   -0.083329
C     -1.790995   -0.065148    0.427800
H      2.249457   -0.424263    0.909126
H      2.533803    1.402013    1.195220
H      0.863907    1.950363   -0.451365
H      1.054916   -0.868068   -1.433031
H     -0.240685    0.307770   -1.816571
H     -1.079464   -1.778016   -0.671604
H     -0.102980   -1.381435    0.779716
H     -2.489558   -0.683432    1.029973
H     -1.400234    0.751101    1.071379
H     -2.351439    0.374855   -0.424342
13

C      2.443938   -0.208923   -0.901759
C      1.528127    0.314263   -0.317842
C      0.412078    0.952063    0.393229
C     -0.650713   -0.073112    0.805784
C     -1.403678   -0.644847   -0.395614
H      3.247592   -0.668510   -1.414414
H      0.813820    1.444343    1.303975
H     -0.037437    1.735461   -0.253582
H     -0.179346   -0.901821    1.378718
H     -1.384076    0.426139    1.475384
H     -2.187884   -1.346597   -0.041401
H     -0.710766   -1.199800   -1.062753
H     -1.891653    0.171341   -0.969726
15

C      1.786476    0.881418   -0.172940
C      0.940144   -0.380336   -0.053714
C     -0.498783   -0.104821   -0.508184
C     -1.540374   -1.065728    0.044169
C     -1.457102    0.355653    0.579860
H      2.828660    0.662040    0.141226
H      1.799450    1.239058   -1.224708
H      1.377793    1.680914    0.481238
H      0.981482   -0.745117    0.996655
H      1.372743   -1.168426   -0.706105
H     -0.703722    0.273564   -1.532703
H     -2.407606   -1.241651   -0.626768
H     -1.172378   -1.836944    0.754511
H     -1.035367    0.429833    1.605165
H     -2.271417    1.020544    0.222297
13

C      2.073115    0.393292   -0.044621
C      1.065999   -0.449282    0.192827
C     -0.238510   -0.315760   -0.538682
C     -1.144327    0.783283   -0.004782
C     -1.468553   -0.673720    0.280043
H      1.963728    1.205748   -0.756880
H      3.016753    0.273045    0.477455
H      1.207225   -1.265254    0.895636
H     -0.297233   -0.496769   -1.633028
H     -0.769630    1.341281    0.880709
H     -1.802946    1.249273   -0.767848
H     -2.318274   -1.069653   -0.315204
H     -1.287348   -0.975485    1.334373
11

C      2.456871   -0.337254    0.487379
C      1.318813   -0.211040    0.110038
C     -0.067023   -0.057472   -0.351208
C     -1.108217   -0.584953    0.621549
C     -0.893635    0.912894    0.475657
H      3.455750   -0.448000    0.818868
H     -0.316935   -0.126979   -1.430827
H     -2.040537   -0.953162    0.143587
H     -0.723567   -1.002797    1.577498
H     -1.699316    1.428613   -0.088390
H     -0.382204    1.380150    1.345432
13

C     -0.737712    0.834808   -0.753018
C      0.541804    1.097572   -0.556726
C      1.204349    0.077103    0.295192
C      0.093762   -0.924850    0.626855
C     -1.170539   -0.410609   -0.069142
H     -1.393136    1.462377   -1.348014
H      1.045842    1.963250   -0.973849
H      2.027806   -0.411399   -0.268645
H      1.601852    0.552645    1.217405
H     -0.063781   -0.979106    1.726420
H      0.359409   -1.936892    0.250013
H     -1.541850   -1.144471   -0.816271
H     -1.967807   -0.180427    0.669779
20

C      2.808870    0.179570    0.202670
C      1.354983    0.437335    0.589069
C      0.394158   -0.361732   -0.305084
C     -1.078504   -0.250114    0.150122
C     -1.636361    1.166834   -0.053635
C     -1.942283   -1.263218   -0.612520
H      2.984914    0.473703   -0.854044
H      3.058508   -0.895246    0.331091
H      3.478813    0.778906    0.854613
H      1.210424    0.147558    1.652558
H      1.156396    1.524942    0.487511
H      0.491485   -0.016596   -1.358399
H      0.697682   -1.431890   -0.271517
H     -1.142840   -0.500775    1.232355
H     -2.715513    1.196435    0.208914
H     -1.117469    1.891576    0.606608
H     -1.518213    1.487616   -1.110924
H     -1.575807   -2.296036   -0.430219
H     -2.996350   -1.209629   -0.265399
H     -1.912892   -1.059237   -1.704678
18

C      2.612213   -0.518828   -0.341793
C      1.781024    0.452248    0.047286
C      0.426223    0.641748   -0.583229
C     -0.709585    0.293032    0.399547
C     -0.731336   -1.208256    0.723556
C     -2.062491    0.723805   -0.180215
H      2.342256   -1.203108   -1.140298
H      3.574358   -0.636238    0.145970
H      2.075772    1.105630    0.863227
H      0.326600    0.035437   -1.511454
H      0.344664    1.710180   -0.878517
H     -0.552732    0.855222    1.347408
H     -1.566034   -1.438314    1.419669
H     -0.862149   -1.807676   -0.203002
H      0.214778   -1.513075    1.218149
H     -2.067144    1.818033   -0.372226
H     -2.878321    0.499030    0.539696
H     -2.268095    0.191130   -1.133761
16

C      3.043635   -0.077553    0.655778
C      1.961091   -0.452721    0.280679
C      0.641736   -0.910166   -0.176863
C     -0.480464    0.037432    0.291313
C     -1.852031   -0.586031    0.005125
C     -0.377391    1.412150   -0.387198
H      3.993733    0.252199    0.985103
H      0.648097   -0.985727   -1.285600
H      0.474013   -1.927186    0.238035
H     -0.396993    0.181066    1.392232
H     -2.661672    0.083680    0.366187
H     -1.950034   -1.557917    0.534362
H     -1.985787   -0.755934   -1.085072
H      0.585700    1.901638   -0.130657
H     -0.445730    1.310597   -1.491719
H     -1.197902    2.074473   -0.037415
18

C     -1.329101   -0.839094   -1.477892
C     -1.141127    0.003657   -0.451391
C     -2.306891    0.367193    0.428832
C      0.226601    0.594271   -0.194406
C      1.166929   -0.448342    0.421531
C      2.542420    0.148422    0.704732
H     -0.507243   -1.110573   -2.133715
H     -2.308273   -1.265479   -1.675318
H     -1.999636    1.053017    1.245727
H     -3.092365    0.868313   -0.175514
H     -2.730916   -0.550915    0.887928
H      0.651469    0.973297   -1.150107
H      0.144026    1.462022    0.495448
H      1.286579   -1.308045   -0.273150
H      0.733784   -0.823921    1.374437
H      3.005999    0.512621   -0.236828
H      2.457032    0.992116    1.422342
H      3.200714   -0.628559    1.147358
18

C      2.897269    0.120841   -0.133360
C      1.534641    0.241446    0.475218
C      0.435874   -0.057642   -0.232289
C     -0.948524    0.055748    0.358365
C     -1.629472   -1.315135    0.352646
C     -1.770860    1.072607   -0.437125
H      2.978758    0.790299   -1.015651
H      3.080549   -0.928554   -0.447100
H      3.667419    0.412645    0.610941
H      1.450789    0.577141    1.505121
H      0.536096   -0.392396   -1.262289
H     -0.894322    0.407830    1.413124
H     -2.640103   -1.242188    0.808284
H     -1.730844   -1.701130   -0.684891
H     -1.032302   -2.038906    0.947866
H     -1.876147    0.752774   -1.496547
H     -1.275422    2.066869   -0.410163
H     -2.783398    1.177751    0.007862
18

C      2.291642    0.109155    0.714432
C      1.696409    0.307314   -0.649349
C      0.396006    0.113729   -0.933745
C     -0.650299   -0.276186    0.089220
C     -1.710465   -1.171262   -0.560100
C     -1.298716    0.979421    0.679589
H      2.193478   -0.952534    1.023505
H      1.788512    0.765603    1.454348
H      3.370698    0.368440    0.689866
H      2.357522    0.624617   -1.450691
H      0.067950    0.310076   -1.951372
H     -0.190286   -0.859296    0.915573
H     -2.459181   -1.488479    0.197026
H     -2.235889   -0.632853   -1.378505
H     -1.233722   -2.083442   -0.978904
H     -1.797455    1.574601   -0.115776
H     -0.531890    1.614360    1.171517
H     -2.054315    0.696735    1.443377
16

C      3.114088    0.087934    0.290073
C      1.664525   -0.097401    0.226099
C      0.469583   -0.249688    0.173121
C     -0.987855   -0.435605    0.108592
C     -1.691616    0.667228    0.902120
C     -1.450559   -0.440831   -1.349861
H      3.616750   -0.734141   -0.259806
H      3.441815    0.078419    1.349954
H      3.383343    1.060223   -0.171450
H     -1.235215   -1.418091    0.565534
H     -2.791335    0.511395    0.878559
H     -1.462166    1.667943    0.475431
H     -1.362202    0.645189    1.963354
H     -2.547293   -0.610383   -1.401310
H     -0.947784   -1.259776   -1.908221
H     -1.214079    0.527585   -1.842188
20

C      1.498442   -0.308422    0.863663
C      0.731462    0.422629   -0.251412
C      1.239214   -0.035474   -1.627443
C     -0.819130    0.295569   -0.136103
C     -1.368452    1.094212    1.056184
C     -1.319489   -1.157600   -0.072646
H      1.167792    0.035189    1.864650
H      2.584505   -0.090559    0.777992
H      1.361591   -1.407678    0.790317
H      0.987145    1.502990   -0.170551
H      0.687735    0.485951   -2.438444
H      1.121267   -1.131529   -1.756035
H      2.317059    0.211979   -1.734916
H     -1.262774    0.755017   -1.047794
H     -1.008824    2.144465    1.019158
H     -1.061281    0.640117    2.021185
H     -2.478799    1.113016    1.019992
H     -0.959658   -1.740293   -0.944634
H     -0.987670   -1.655513    0.862475
H     -2.430135   -1.174066   -0.095639
18

C      0.972050   -1.072596   -1.049225
C      0.784968   -0.281908    0.021567
C      1.932732   -0.073892    0.975440
C     -0.554031    0.396059    0.277870
C     -1.668520   -0.635392    0.493228
C     -0.912193    1.367544   -0.853630
H      1.930618   -1.552327   -1.224360
H      0.175933   -1.252598   -1.763965
H      2.790009    0.382741    0.436850
H      2.248954   -1.050096    1.400347
H      1.653617    0.595992    1.814902
H     -0.487656    0.998058    1.210385
H     -2.611820   -0.121835    0.777357
H     -1.853036   -1.225553   -0.429373
H     -1.390564   -1.329675    1.314909
H     -1.078027    0.826846   -1.809492
H     -0.093500    2.105268   -0.994886
H     -1.839535    1.923364   -0.597924
18

C     -1.014277    1.187714    0.792293
C     -0.337146    0.061424   -0.005334
C     -1.343224   -0.758166   -0.829548
C      0.867596    0.540314   -0.824243
C      1.787942   -0.325754    0.028267
C      0.595700   -0.806954    0.847352
H     -0.267953    1.765601    1.379425
H     -1.533060    1.884470    0.100089
H     -1.760002    0.759800    1.495527
H     -1.868283   -0.098694   -1.552847
H     -0.831048   -1.565366   -1.396804
H     -2.095279   -1.223356   -0.157413
H      1.090627    1.624365   -0.709994
H      0.851900    0.211896   -1.887190
H      2.263249   -1.144848   -0.554590
H      2.503412    0.276413    0.629978
H      0.664281   -0.488221    1.911152
H      0.425566   -1.900636    0.733883
18

C      1.876460    0.540636    0.714651
C      0.987036   -0.448487   -0.047213
C      0.354483    0.085594   -1.335742
C     -0.518283   -0.166946   -0.106894
C     -1.079750    1.077343    0.597504
C     -1.420619   -1.402763   -0.175862
H      1.751157    1.590725    0.378504
H      1.653309    0.475855    1.799906
H      2.938627    0.260050    0.558658
H      1.288074   -1.517868   -0.079898
H      0.278153   -0.674619   -2.142198
H      0.562857    1.151050   -1.571496
H     -1.066570    0.916173    1.695603
H     -2.129867    1.241814    0.277273
H     -0.510341    1.999680    0.361570
H     -0.931000   -2.249628   -0.703418
H     -1.676279   -1.729887    0.853590
H     -2.357449   -1.148721   -0.714525
18

C      2.006625    0.514962   -0.100981
C      1.023982   -0.587305    0.304729
C     -0.094258   -0.102133    1.227365
C     -1.124394   -0.439900    0.149477
C     -1.879884    0.781627   -0.381836
C     -0.005515   -0.918544   -0.775794
H      1.472194    1.408956   -0.489030
H      2.687955    0.133306   -0.890108
H      2.614010    0.813601    0.779061
H      1.535745   -1.494173    0.697003
H     -0.037924    0.981499    1.476688
H     -0.203508   -0.748338    2.125612
H     -1.805453   -1.264926    0.455552
H     -2.486793    0.488356   -1.264017
H     -2.560636    1.168703    0.405142
H     -1.178951    1.590829   -0.680657
H      0.103042   -0.315352   -1.705300
H     -0.066236   -2.011170   -0.972895
18

C      2.296370   -0.259110    0.239146
C      0.982161    0.311771   -0.301036
C     -0.011829   -0.758283   -0.752624
C     -0.982143   -0.311760    0.341026
C     -2.296384    0.259081   -0.199117
C      0.011834    0.758316    0.792593
H      2.110299   -1.039856    1.008272
H      2.877360   -0.706919   -0.594248
H      2.897072    0.556716    0.693249
H      1.140921    1.096578   -1.073738
H     -0.380911   -0.576375   -1.786372
H      0.343821   -1.800807   -0.595767
H     -1.140857   -1.096569    1.113734
H     -2.897073   -0.556767   -0.653197
H     -2.877367    0.706866    0.634297
H     -2.110363    1.039838   -0.968244
H     -0.343820    1.800833    0.635686
H      0.380909    0.576449    1.826352
20

C      2.538407    0.304324   -0.402033
C      1.238846    0.758263    0.265740
C     -0.000527   -0.037344   -0.209802
C      0.061208   -1.498763    0.271622
C     -1.286665    0.660816    0.293784
C     -2.561877    0.107520   -0.345386
H      2.423857    0.284284   -1.506600
H      2.840485   -0.699820   -0.040429
H      3.351707    1.015828   -0.146049
H      1.345442    0.678573    1.369919
H      1.101608    1.834147    0.019705
H     -0.013095   -0.031950   -1.322759
H      0.075357   -1.546062    1.381564
H      0.964779   -2.006305   -0.122230
H     -0.809080   -2.074751   -0.102535
H     -1.362288    0.574104    1.399988
H     -1.238221    1.743863    0.045677
H     -2.777597   -0.916598    0.021986
H     -2.470646    0.095402   -1.452237
H     -3.421700    0.754469   -0.070830
18

C      2.379048   -0.442803    0.383339
C      1.411966    0.259126    0.986262
C      0.050438    0.482269    0.364707
C      0.177264    1.285327   -0.939038
C     -0.683274   -0.861811    0.159042
C     -2.165583   -0.681399   -0.169685
H      2.225680   -0.889050   -0.593861
H      3.338561   -0.573920    0.872766
H      1.612091    0.686701    1.964548
H     -0.537256    1.095707    1.083386
H     -0.821798    1.617913   -1.289108
H      0.792201    2.195172   -0.769120
H      0.652473    0.676333   -1.737279
H     -0.200782   -1.446988   -0.653902
H     -0.613482   -1.460829    1.093894
H     -2.663255   -0.058982    0.603991
H     -2.661205   -1.674774   -0.194875
H     -2.293087   -0.207992   -1.165067
16

C      1.270966    2.363798   -0.206600
C      1.002134    1.195741   -0.337674
C      0.674090   -0.230843   -0.498390
C      1.154236   -1.028209    0.719190
C     -0.829000   -0.432116   -0.787354
C     -1.754190    0.022196    0.346245
H      1.506531    3.388995   -0.091315
H      1.235485   -0.600463   -1.383880
H      2.261913   -0.976188    0.792034
H      0.724313   -0.623708    1.660187
H      0.864483   -2.095726    0.617460
H     -1.020124   -1.508008   -0.992594
H     -1.097901    0.127791   -1.710131
H     -1.575419    1.087816    0.600761
H     -1.606729   -0.605140    1.249555
H     -2.810787   -0.085935    0.022507
14

C      0.470743    1.721427   -1.868080
C      0.053502    0.786313   -1.231357
C     -0.456090   -0.354846   -0.454524
C     -1.479171    0.114639    0.583206
C      0.680861   -1.111565    0.189709
C      1.523575   -0.548613    1.064676
H      0.837086    2.542201   -2.426621
H     -0.972404   -1.040562   -1.160365
H     -2.343671    0.593948    0.075352
H     -1.029288    0.848872    1.285690
H     -1.856704   -0.753599    1.164692
H      0.820806   -2.156963   -0.069892
H      2.325304   -1.136055    1.500079
H      1.425451    0.494802    1.347435
18

C     -0.239421    1.657745    0.221703
C     -0.049142    0.340252    0.045504
C      1.350620   -0.229516    0.059528
C      2.093050    0.102458   -1.231659
C     -1.234769   -0.572641   -0.166808
C     -1.991674   -0.804371    1.137789
H     -1.238622    2.082731    0.210344
H      0.601893    2.325958    0.379262
H      1.315762   -1.334177    0.175674
H      1.913462    0.174415    0.929155
H      2.200786    1.201856   -1.347521
H      1.543263   -0.306519   -2.106238
H      3.106297   -0.350859   -1.204600
H     -0.898452   -1.555294   -0.562111
H     -1.919675   -0.131426   -0.923403
H     -1.317712   -1.255166    1.897377
H     -2.396489    0.153218    1.528755
H     -2.839177   -1.498664    0.957251
18

C      2.100103    0.183614   -0.007264
C      0.914365   -0.518579    0.648827
C     -0.426532   -0.007697    0.090283
C     -0.838730    1.445648    0.354846
C     -0.890721   -0.613048   -1.228074
C     -1.565646   -1.021660    0.077949
H      2.067512    0.048775   -1.109312
H      2.092611    1.267587    0.232086
H      3.046963   -0.251962    0.375723
H      1.023870   -1.613915    0.488667
H      0.943192   -0.335764    1.744287
H     -0.796609    1.650598    1.444902
H     -1.868718    1.658311   -0.004196
H     -0.143440    2.133799   -0.168407
H     -1.516919    0.044001   -1.868804
H     -0.234863   -1.400636   -1.656967
H     -1.313082   -2.055039    0.398136
H     -2.593358   -0.614033    0.187316
18

C      1.390456    0.202190   -1.182757
C      0.743774    0.599382    0.151941
C      0.881584   -0.470476    1.235350
C     -0.636800   -0.570823    1.339132
C     -0.788375    0.498126    0.256665
C     -1.552264    0.007715   -0.981618
H      1.079538    0.912150   -1.977352
H      1.117101   -0.830847   -1.483870
H      2.495050    0.252318   -1.082957
H      1.111152    1.589374    0.503576
H      1.342004   -1.420388    0.883843
H      1.343023   -0.073457    2.165938
H     -1.015909   -0.229357    2.327171
H     -1.012154   -1.575972    1.044754
H     -1.231209    1.434576    0.663675
H     -2.630119   -0.086344   -0.732651
H     -1.447535    0.745123   -1.804637
H     -1.189316   -0.983291   -1.326200
18

C      1.861520    0.672034   -0.543834
C      0.662050   -0.263823   -0.368832
C      0.607254   -0.932540    1.004827
C     -0.696069   -0.203525    1.312300
C     -0.645701    0.472958   -0.057719
C     -1.803206    0.073890   -0.977561
H      1.751727    1.242590   -1.489899
H      2.795514    0.073986   -0.595572
H      1.940252    1.389403    0.301719
H      0.580202   -1.001974   -1.198427
H      0.466368   -2.033153    0.932114
H      1.430734   -0.635342    1.691565
H     -0.584337    0.524152    2.145660
H     -1.550998   -0.902998    1.446048
H     -0.535180    1.577923    0.023722
H     -2.749903    0.509489   -0.594547
H     -1.618026    0.467965   -1.998859
H     -1.912200   -1.031036   -1.032703
18

C      2.125136    0.042234    0.273275
C      0.671295   -0.431414    0.187691
C      0.063443   -0.210898   -1.191204
C     -1.438794   -0.100515   -0.959405
C     -1.635622    0.236471    0.519148
C     -0.247117    0.320814    1.141702
H      2.518191   -0.131495    1.297458
H      2.205519    1.125165    0.037155
H      2.750231   -0.528778   -0.445631
H      0.629831   -1.517877    0.429796
H      0.306701   -1.051540   -1.876988
H      0.434204    0.740062   -1.635670
H     -1.929207   -1.070935   -1.194226
H     -1.877862    0.688108   -1.608823
H     -2.177050    1.200333    0.638622
H     -2.223279   -0.567454    1.014855
H     -0.230299   -0.132132    2.156940
H      0.054677    1.389852    1.215303
16

C      2.074248    0.832249   -0.192680
C      0.838131    0.336281   -0.077851
C     -0.305210    1.105961    0.479832
C     -1.512897    0.206690    0.239421
C     -0.970328   -1.203033   -0.008754
C      0.465883   -1.041497   -0.494753
H      2.874757    0.227870   -0.607970
H      2.293888    1.845945    0.127844
H     -0.149632    1.274518    1.567476
H     -0.426597    2.078110   -0.045808
H     -2.059515    0.554087   -0.665198
H     -2.206502    0.223415    1.107944
H     -1.589244   -1.746378   -0.755358
H     -0.976378   -1.772176    0.947202
H      0.519224   -1.126227   -1.601803
H      1.130173   -1.795817   -0.019544
16

C      1.760641   -0.562046   -0.426707
C      0.623990    0.177185    0.286715
C     -0.187304    1.067995   -0.670170
C     -1.602878    0.763109   -0.336523
C     -1.713696   -0.235799    0.521965
C     -0.392994   -0.786090    0.923278
H      2.316365   -1.191655    0.300259
H      1.361520   -1.212266   -1.234804
H      2.467509    0.170749   -0.870625
H      1.062871    0.815848    1.086495
H      0.026529    2.143812   -0.492606
H     -0.004550    0.819869   -1.738484
H     -2.455024    1.273298   -0.773528
H     -2.666107   -0.629395    0.861694
H     -0.297713   -1.822698    0.532605
H     -0.299157   -0.791918    2.030435
16

C      1.906366   -0.071645   -0.214450
C      0.562819   -0.525004    0.362155
C     -0.035798    0.546864    1.205731
C     -1.202598    0.959775    0.743397
C     -1.604195    0.250261   -0.498294
C     -0.490605   -0.775827   -0.733108
H      2.328621   -0.871101   -0.859601
H      2.624911    0.129257    0.608726
H      1.784064    0.853029   -0.819481
H      0.709648   -1.440294    0.976556
H      0.428193    0.950669    2.100105
H     -1.789833    1.740993    1.214803
H     -1.663144    0.972379   -1.340757
H     -2.586163   -0.249091   -0.353535
H     -0.899526   -1.805448   -0.633835
H     -0.072763   -0.664817   -1.758411
14

C      2.084092    0.467035   -0.194601
C      0.778942    0.248478   -0.059256
C     -0.200996    1.265104    0.257609
C     -1.398196    0.715709    0.318148
C     -1.366348   -0.755743    0.045627
C      0.114485   -1.075084   -0.211355
H      2.754314   -0.348816   -0.433293
H      2.492663    1.461670   -0.068119
H      0.002758    2.315577    0.421763
H     -2.298973    1.272506    0.540561
H     -1.984410   -0.989628   -0.847603
H     -1.746013   -1.313407    0.928479
H      0.503425   -1.794115    0.541939
H      0.264257   -1.469286   -1.239899
16

C      2.153272    0.505796    0.005904
C      0.686253    0.204204   -0.031845
C     -0.184591    0.902757   -0.742332
C     -1.569709    0.386307   -0.596291
C     -1.439276   -0.803701    0.361123
C      0.046504   -0.908057    0.720671
H      2.677663   -0.214373    0.668594
H      2.579043    0.427622   -1.016509
H      2.315426    1.533402    0.393788
H      0.083128    1.754516   -1.360124
H     -1.959745    0.062288   -1.584955
H     -2.224817    1.174263   -0.166721
H     -2.048271   -0.633360    1.275937
H     -1.784897   -1.738097   -0.133065
H      0.467635   -1.883112    0.393382
H      0.202381   -0.770454    1.812444
18

C      1.633609    0.099606   -0.784923
C      0.966056   -0.622649    0.396152
C     -0.139118    0.073410    1.205611
C     -0.523130    1.517861    0.847423
C     -0.493783   -1.081061    0.255641
C     -1.283353   -0.771423   -1.026111
H      1.727786   -0.605012   -1.637294
H      1.108878    1.009854   -1.129023
H      2.655074    0.405410   -0.478023
H      1.590979   -1.337397    0.973143
H     -0.121231   -0.194860    2.283574
H     -1.371775    1.826137    1.492273
H      0.334449    2.187994    1.065083
H     -0.837733    1.668110   -0.201723
H     -0.743594   -2.021851    0.791191
H     -2.300671   -0.422063   -0.752410
H     -1.387996   -1.709282   -1.609685
H     -0.814447   -0.022785   -1.690898
18

C      1.714848   -0.581048   -0.795849
C      0.747707   -0.409450    0.381071
C     -0.131533    0.841096    0.336308
C     -0.431459    1.464152    1.699150
C     -0.757362   -0.535465    0.107501
C     -1.211046   -0.826005   -1.327664
H      1.707048   -1.639747   -1.128724
H      1.473634    0.075024   -1.657856
H      2.740294   -0.329239   -0.454920
H      1.062313   -0.768267    1.384895
H     -0.026036    1.504001   -0.549625
H     -0.514300    0.703651    2.505744
H      0.381111    2.172911    1.961486
H     -1.387376    2.024666    1.640073
H     -1.340838   -0.969483    0.948084
H     -2.317231   -0.752690   -1.374155
H     -0.916998   -1.859400   -1.605736
H     -0.792778   -0.114708   -2.069782
20

C      3.171435    0.250688    0.103212
C      1.868931   -0.536212   -0.009390
C      0.653275    0.397089    0.024133
C     -0.653275   -0.397089   -0.089216
C     -1.868932    0.536212   -0.055698
C     -3.171434   -0.250688   -0.168311
H      3.266443    0.963008   -0.743937
H      4.032481   -0.449913    0.076188
H      3.201040    0.813012    1.060816
H      1.876166   -1.108636   -0.962618
H      1.811048   -1.257998    0.834435
H      0.719944    1.118310   -0.820306
H      0.654765    0.968805    0.978502
H     -0.719945   -1.118308    0.755224
H     -0.654764   -0.968806   -1.043584
H     -1.876173    1.108630    0.897533
H     -1.811045    1.258002   -0.899518
H     -3.266436   -0.963029    0.678823
H     -4.032482    0.449910   -0.141265
H     -3.201043   -0.812989   -1.125928
18

C      2.912418    0.324881    0.470827
C      2.125282    0.763041   -0.516196
C      0.871126    0.033368   -0.912179
C     -0.219029    0.181262    0.156160
C     -1.508397   -0.527743   -0.273548
C     -2.596017   -0.385058    0.787203
H      2.663158   -0.572907    1.028292
H      3.818629    0.865779    0.723159
H      2.414695    1.652303   -1.068455
H      0.503629    0.459289   -1.871033
H      1.103428   -1.041389   -1.079195
H     -0.429082    1.261787    0.318660
H      0.137030   -0.257276    1.114299
H     -1.877159   -0.090662   -1.227140
H     -1.305084   -1.608653   -0.436904
H     -2.836000    0.687004    0.952057
H     -2.262692   -0.838195    1.745144
H     -3.515935   -0.906831    0.448861
16

C      2.954951    1.007676    0.128631
C      2.194992    0.099796   -0.098465
C      1.268758   -1.006447   -0.374658
C     -0.149039   -0.495453   -0.657975
C     -0.815106    0.091640    0.595286
C     -2.239015    0.551871    0.297085
H      3.621684    1.804902    0.328086
H      1.262114   -1.705807    0.488437
H      1.639853   -1.558623   -1.263844
H     -0.117187    0.269558   -1.465588
H     -0.759348   -1.349921   -1.024262
H     -0.846792   -0.676901    1.398078
H     -0.229851    0.961597    0.964068
H     -2.694464    0.972362    1.218363
H     -2.233705    1.338356   -0.487455
H     -2.857843   -0.304605   -0.045786
16

C      2.731135   -0.029137   -0.043997
C      1.719477   -0.506059    0.687376
C      0.357211    0.130994    0.665900
C     -0.357211   -0.130994   -0.665900
C     -1.719477    0.506059   -0.687376
C     -2.731136    0.029137    0.043998
H      2.596692    0.833636   -0.689336
H      3.706444   -0.502275    0.004766
H      1.893424   -1.357034    1.339413
H      0.454863    1.225216    0.840403
H     -0.242325   -0.297479    1.497904
H     -0.454863   -1.225216   -0.840402
H      0.242325    0.297479   -1.497904
H     -1.893424    1.357032   -1.339416
H     -3.706445    0.502275   -0.004767
H     -2.596692   -0.833634    0.689338
14

C      2.162017    1.386724    0.205742
C      1.604077    0.318363    0.234884
C      0.926873   -0.984498    0.270324
C     -0.562128   -0.843389    0.608912
C     -1.353852   -0.273344   -0.538808
C     -1.417927    1.041018   -0.770534
H      2.650945    2.324869    0.180011
H      1.416918   -1.608307    1.047532
H      1.053200   -1.492545   -0.709812
H     -0.703031   -0.228446    1.525558
H     -0.961671   -1.856529    0.829793
H     -1.913030   -0.949914   -1.178455
H     -2.008508    1.417468   -1.599335
H     -0.893883    1.748529   -0.135681
12

C      3.011284   -0.200661    0.252529
C      1.829481   -0.022428    0.410844
C      0.391422    0.194823    0.604268
C     -0.391422   -0.317358   -0.604269
C     -1.829480   -0.100106   -0.410845
C     -3.011283    0.078125   -0.252529
H      4.048629   -0.357194    0.113390
H      0.211176    1.282771    0.742590
H      0.070521   -0.342730    1.522589
H     -0.070520    0.220190   -1.522592
H     -0.211178   -1.405307   -0.742587
H     -4.048628    0.234653   -0.113388
18

C      3.048821   -0.377393   -0.557256
C      1.664783    0.166457   -0.384013
C      0.900072   -0.210525    0.650366
C     -0.486262    0.338462    0.847046
C     -1.456516   -0.216519   -0.202356
C     -2.871421    0.307442    0.024937
H      3.010804   -1.481866   -0.666438
H      3.511032    0.057631   -1.467946
H      3.672558   -0.113890    0.322941
H      1.285772    0.878442   -1.112188
H      1.293121   -0.906893    1.386626
H     -0.457199    1.449097    0.795860
H     -0.839653    0.049565    1.860746
H     -1.125016    0.081548   -1.220737
H     -1.470456   -1.327196   -0.148085
H     -2.888122    1.415945   -0.046144
H     -3.241717   -0.001962    1.025554
H     -3.550601   -0.108346   -0.748900
18

C      2.304305   -0.774711   -0.226469
C      1.543785    0.200262   -1.078291
C      0.483808    0.905077   -0.644562
C     -0.112842    0.781623    0.736603
C     -1.128081   -0.366596    0.825042
C     -2.382569   -0.096106   -0.005185
H      3.131728   -1.217345   -0.819467
H      2.742742   -0.256115    0.651540
H      1.640830   -1.595359    0.113522
H      1.885048    0.358268   -2.097306
H      0.020117    1.607558   -1.331215
H     -0.619311    1.737120    0.993547
H      0.685712    0.633924    1.493947
H     -0.666721   -1.319753    0.491547
H     -1.429420   -0.492103    1.887452
H     -2.128541   -0.025053   -1.083830
H     -2.866840    0.848573    0.321758
H     -3.103749   -0.929266    0.131378
16

C      3.510315   -0.140581    0.151601
C      2.088588    0.060125   -0.128336
C      0.916726    0.225200   -0.358515
C     -0.509156    0.425986   -0.638476
C     -1.364093   -0.254644    0.432971
C     -2.851602   -0.055764    0.157298
H      3.960045   -0.765527   -0.647174
H      3.626204   -0.651143    1.129744
H      4.023277    0.842592    0.184714
H     -0.739631   -0.001257   -1.637773
H     -0.718512    1.516900   -0.656522
H     -1.123694    0.171032    1.432193
H     -1.144791   -1.345043    0.452281
H     -3.446775   -0.558773    0.948339
H     -3.124040   -0.495470   -0.825849
H     -3.102864    1.026367    0.157792
18

C     -2.731375   -0.174120    0.401812
C     -1.774279    0.562988   -0.530798
C     -0.371094    0.558912    0.009629
C      0.371095   -0.558914    0.030370
C      1.774279   -0.562990    0.570798
C      2.731375    0.174122   -0.361809
H     -3.763349   -0.114708   -0.003640
H     -2.447043   -1.244423    0.486386
H     -2.718593    0.289828    1.411296
H     -2.117072    1.614830   -0.634477
H     -1.792942    0.094569   -1.538728
H      0.050866    1.495385    0.364389
H     -0.050866   -1.495387   -0.324390
H      2.117073   -1.614831    0.674474
H      1.792940   -0.094572    1.578729
H      2.718594   -0.289822   -1.371294
H      2.447044    1.244426   -0.446379
H      3.763349    0.114708    0.043643
18

C      2.348649    0.140403   -0.020772
C      1.061730   -0.370233   -0.663078
C     -0.084141   -0.443446    0.361185
C     -1.413926   -0.881200   -0.250289
C     -2.023987    0.466326    0.110595
C     -0.699135    0.911015    0.714526
H      3.159669    0.159471   -0.778893
H      2.655912   -0.528695    0.811030
H      2.206339    1.169651    0.370975
H      0.787307    0.291928   -1.513934
H      1.247837   -1.388755   -1.067179
H      0.174793   -1.043280    1.262679
H     -1.881854   -1.720012    0.310068
H     -1.378348   -1.046798   -1.350065
H     -2.832145    0.380217    0.869554
H     -2.304708    1.060946   -0.786195
H     -0.256726    1.772344    0.166943
H     -0.767263    1.070119    1.812861
16

C      1.989607   -0.570552   -0.561050
C      1.536228    0.543394    0.028103
C      0.076604    0.783482    0.356049
C     -0.887754    0.564881   -0.808898
C     -1.559498   -0.562944   -0.033859
C     -0.601421   -0.345028    1.131692
H      1.318037   -1.376249   -0.839700
H      3.048987   -0.680052   -0.768694
H      2.249931    1.319629    0.286725
H     -0.080115    1.771864    0.842608
H     -1.567171    1.431841   -0.961809
H     -0.408581    0.210630   -1.747849
H     -2.614424   -0.331087    0.230510
H     -1.421006   -1.553916   -0.518944
H      0.044626   -1.229596    1.323754
H     -1.124049    0.023703    2.041362
14

C      2.685825   -0.654850    0.542519
C      1.629942   -0.446387   -0.000775
C      0.340503   -0.191982   -0.665063
C     -0.829228   -0.900824    0.011867
C     -1.434830    0.448622    0.375402
C     -0.265350    1.158650   -0.294008
H      3.612511   -0.837772    1.019676
H      0.378982   -0.365532   -1.762700
H     -0.550217   -1.494048    0.911740
H     -1.458018   -1.463002   -0.712793
H     -1.465571    0.620159    1.473706
H     -2.401624    0.636602   -0.140945
H     -0.581292    1.739053   -1.188363
H      0.338368    1.751313    0.429737
18

C      2.662668   -0.231448    0.083783
C      1.269222   -0.389579   -0.517574
C      0.251117    0.499695    0.201208
C     -1.135142    0.343179   -0.437236
C     -2.302975    0.712951    0.464345
C     -2.014033   -0.748253    0.154843
H      3.377683   -0.885729   -0.458108
H      2.655990   -0.523811    1.155501
H      3.005166    0.821374   -0.007560
H      1.309164   -0.118053   -1.595216
H      0.959295   -1.454207   -0.434080
H      0.558170    1.563611    0.106884
H      0.234074    0.242223    1.284159
H     -1.286113    0.560168   -1.516549
H     -2.048344    1.011917    1.503834
H     -3.188367    1.117521   -0.070071
H     -1.583059   -1.315794    1.007353
H     -2.724516   -1.205764   -0.565506
16

C      2.211727   -0.739183   -0.383963
C      1.721468    0.500603   -0.474315
C      0.464502    0.907713    0.240153
C     -0.759814    0.245708   -0.405065
C     -1.279667   -1.011385    0.276972
C     -2.024002    0.304543    0.438927
H      1.707865   -1.498776    0.205526
H      3.129031   -0.999060   -0.902078
H      2.260309    1.241404   -1.057787
H      0.556207    0.665552    1.322423
H      0.348026    2.008744    0.152040
H     -0.931951    0.324643   -1.500130
H     -1.778515   -1.730399   -0.406442
H     -0.736502   -1.337650    1.189527
H     -1.921346    0.757345    1.448644
H     -2.967336    0.360196   -0.144429
14

C      3.030108   -0.096168   -0.151310
C      1.893365   -0.482076   -0.040301
C      0.511738   -0.951413    0.093801
C     -0.385627    0.205818    0.541960
C     -1.861328    0.033189    0.216152
C     -1.018630    1.021987   -0.575238
H      4.027876    0.242797   -0.248728
H      0.479175   -1.750439    0.863384
H      0.185706   -1.386481   -0.875927
H     -0.174283    0.750380    1.487549
H     -2.553178    0.513152    0.940187
H     -2.137166   -0.880063   -0.353723
H     -0.789556    0.694430   -1.611978
H     -1.208201    2.084886   -0.315696
16

C      2.663948   -0.455345   -0.289485
C      1.333188   -0.301364    0.378840
C      0.367811    0.444561   -0.171768
C     -0.956653    0.613358    0.515233
C     -1.890699   -0.578393    0.370906
C     -2.154122    0.693238   -0.418085
H      2.533468   -0.915004   -1.291958
H      3.317417   -1.110609    0.323568
H      3.150627    0.536922   -0.398015
H      1.156648   -0.808766    1.323634
H      0.550683    0.967459   -1.107025
H     -1.032323    1.168275    1.474447
H     -1.517412   -1.422310   -0.249064
H     -2.582837   -0.727978    1.226329
H     -1.938370    0.599620   -1.504457
H     -3.001372    1.296336   -0.028814
16

C      1.917781    0.719576   -0.779347
C      1.683964   -0.320026    0.277846
C      0.480330   -0.865513    0.512329
C     -0.746251   -0.496614   -0.279079
C     -1.450908    0.760945    0.205044
C     -2.054810   -0.604184    0.488229
H      1.649045    0.314982   -1.777815
H      1.308931    1.623331   -0.567074
H      2.989714    1.007672   -0.788884
H      2.529414   -0.645767    0.876784
H      0.396550   -1.627083    1.282490
H     -0.800549   -0.696778   -1.370350
H     -1.973539    1.329769   -0.592665
H     -1.009850    1.253757    1.098535
H     -1.980112   -0.912877    1.553351
H     -2.939708   -0.841190   -0.139394
14

C      2.951796   -0.297187    0.132622
C      1.509552   -0.133014    0.313834
C      0.320784    0.002229    0.462290
C     -1.127001    0.166971    0.643568
C     -1.812992    0.918227   -0.484914
C     -1.970041   -0.589365   -0.369194
H      3.269534   -1.271434    0.557752
H      3.194044   -0.269486   -0.949700
H      3.485918    0.524791    0.652164
H     -1.561806    0.290221    1.657749
H     -2.715104    1.488164   -0.177336
H     -1.164959    1.238826   -1.329708
H     -2.964892   -0.909153    0.006591
H     -1.414833   -1.159790   -1.145587
18

C      2.347464    0.381243   -0.522219
C      0.832913    0.549439   -0.543669
C      0.222938    0.057998    0.780903
C     -0.394279   -1.337235    0.748015
C     -1.295747   -0.111194    0.866222
C     -2.138601    0.220677   -0.370922
H      2.776971    0.747507   -1.478511
H      2.789375    0.966098    0.312653
H      2.612065   -0.690800   -0.399655
H      0.593924    1.627103   -0.667907
H      0.435791    0.002241   -1.424582
H      0.705270    0.341130    1.741464
H     -0.274044   -1.902609    1.695973
H     -0.384653   -1.848540   -0.238339
H     -1.725556    0.066652    1.875048
H     -1.826769   -0.341271   -1.275665
H     -2.079961    1.309608   -0.577304
H     -3.197099   -0.038046   -0.161494
18

C      2.330626    0.234114    0.348850
C      1.358270   -0.209073   -0.737552
C     -0.035180    0.375739   -0.477089
C     -1.179950   -0.378771   -1.146327
C     -0.965518   -0.495938    0.358758
C     -1.971107    0.269407    1.218141
H      3.338475   -0.182120    0.139270
H      2.401234    1.342580    0.374310
H      1.991627   -0.134484    1.340575
H      1.720479    0.161022   -1.720268
H      1.341552   -1.321029   -0.774982
H     -0.173616    1.477691   -0.424265
H     -2.025963    0.267561   -1.464149
H     -0.892386   -1.287877   -1.716643
H     -0.570155   -1.473857    0.708758
H     -2.289401    1.226189    0.750058
H     -1.510779    0.492353    2.202928
H     -2.868208   -0.363510    1.379637
16

C      1.985768   -1.055646   -0.448026
C      1.401800    0.129300   -0.262491
C      0.433065    0.337815    0.870157
C     -0.583243    1.452122    0.638767
C     -1.036290   -0.003199    0.616912
C     -1.433802   -0.539550   -0.763559
H      2.689872   -1.192956   -1.262141
H      1.764146   -1.894157    0.205511
H      1.647435    0.953586   -0.925932
H      0.784330    0.236093    1.919041
H     -0.871400    1.999148    1.561094
H     -0.534043    1.959706   -0.349211
H     -1.607165   -0.330467    1.511718
H     -0.925745   -0.010259   -1.597721
H     -1.185313   -1.619647   -0.819886
H     -2.529416   -0.421891   -0.894233
16

C      2.508438   -0.141250    0.219277
C      1.572187    0.755225   -0.097243
C      0.158131    0.590566    0.379008
C     -0.903338    1.079498   -0.600762
C     -0.656735   -0.413623   -0.427523
C     -1.733987   -1.159331    0.359574
H      2.262533   -1.018421    0.810511
H      3.530861   -0.000639   -0.115866
H      1.847163    1.633283   -0.674327
H     -0.084143    0.692838    1.458827
H     -1.819574    1.477878   -0.114779
H     -0.523092    1.490014   -1.560994
H     -0.151219   -0.911088   -1.283816
H     -2.553964   -1.449065   -0.329767
H     -1.293007   -2.079882    0.794906
H     -2.160254   -0.546003    1.182975
14

C      2.597887    0.382569   -0.113074
C      1.552317   -0.137474   -0.412962
C      0.277510   -0.773982   -0.781926
C     -0.513717   -1.295794    0.412664
C     -1.012992   -0.075513   -0.352256
C     -0.906693    1.256680    0.400464
H      3.515265    0.839426    0.150600
H      0.224879   -1.410489   -1.690122
H     -1.087740   -2.223160    0.203951
H     -0.071997   -1.095923    1.413756
H     -1.889051   -0.258593   -1.010104
H     -1.877876    1.470741    0.892729
H     -0.691616    2.068885   -0.324541
H     -0.116177    1.252626    1.180951
14

C      3.003553   -0.102924    0.637629
C      1.922901   -0.042494    0.106617
C      0.607307    0.032175   -0.541234
C     -0.270505   -1.189562   -0.296417
C     -0.560447    0.117003    0.431921
C     -1.779439    0.883585   -0.080565
H      3.952027   -0.156111    1.103979
H      0.499941    0.516115   -1.535482
H     -0.952935   -1.434485   -1.138358
H      0.167002   -1.979694    0.351960
H     -0.324121    0.113991    1.518579
H     -2.692822    0.483030    0.406103
H     -1.898740    0.804424   -1.183039
H     -1.673723    1.954946    0.188440
18

C     -1.461622   -0.367834    1.149537
C     -0.559790    0.348265    0.140271
C     -1.353229    0.719574   -1.115617
C      0.621802   -0.562839   -0.240615
C      1.823380   -0.500120    0.691598
C      1.889243    0.157751   -0.677789
H     -0.886466   -0.612344    2.067999
H     -1.864499   -1.309601    0.718068
H     -2.310966    0.287821    1.437606
H     -0.200157    1.291656    0.610362
H     -0.699720    1.260172   -1.833161
H     -2.201379    1.386262   -0.850225
H     -1.753220   -0.191132   -1.611688
H      0.441851   -1.548140   -0.722645
H      2.398798   -1.447043    0.764005
H      1.753641    0.219391    1.535404
H      1.858643    1.268013   -0.647378
H      2.503689   -0.399853   -1.415733
16

C     -1.230347    1.477006   -0.133517
C     -0.733005    0.237167   -0.240960
C     -1.652948   -0.946612   -0.116971
C      0.722435    0.036311   -0.587259
C      1.704949    0.589185    0.437943
C      1.488332   -0.908527    0.329725
H     -0.591153    2.345752   -0.260336
H     -2.282690    1.637312    0.081835
H     -2.487029   -0.856092   -0.844875
H     -2.068555   -0.991871    0.911691
H     -1.112325   -1.893898   -0.324793
H      1.059993    0.087700   -1.644039
H      2.671032    0.934268    0.012783
H      1.263164    1.037712    1.354034
H      0.922634   -1.336692    1.185172
H      2.325514   -1.448721   -0.160432
16

C      0.839792    1.201704    0.554811
C     -0.468384    1.449310    0.370506
C     -1.406365    0.442371   -0.249025
C     -0.877524   -0.993138   -0.144359
C      0.591184   -1.050681   -0.569020
C      1.445253   -0.164799    0.345909
H      1.466904    1.983748    0.971990
H     -0.846211    2.446596    0.574389
H     -2.394829    0.506150    0.253607
H     -1.547355    0.705804   -1.319373
H     -0.978639   -1.354619    0.902880
H     -1.481117   -1.658236   -0.798814
H      0.689815   -0.706925   -1.622446
H      0.954678   -2.099344   -0.512740
H      2.458444   -0.052076   -0.095118
H      1.554352   -0.655865    1.336803
14

C      1.211331    0.852829    0.508501
C     -0.010352    1.384529    0.390890
C     -1.107701    0.632795   -0.317503
C     -0.964776   -0.885557   -0.115050
C      0.464023   -1.329198   -0.296203
C      1.474660   -0.525242    0.052100
H      2.013819    1.433494    0.944836
H     -0.192165    2.394880    0.734903
H     -2.096527    0.970637    0.059296
H     -1.050774    0.864551   -1.402986
H     -1.617957   -1.423661   -0.834556
H     -1.288817   -1.149890    0.914684
H      0.670798   -2.336506   -0.635005
H      2.494437   -0.883661   -0.003905
23

C      3.001022    0.172724   -0.152775
C      1.554357    0.647279   -0.041653
C      0.576663   -0.539035   -0.142382
C     -0.932998   -0.165751   -0.040644
C     -1.253072    0.492300    1.318473
C     -1.349514    0.784245   -1.183754
C     -1.758113   -1.464703   -0.160396
H      3.169843   -0.327050   -1.130450
H      3.685365    1.044027   -0.077484
H      3.239155   -0.536906    0.668104
H      1.436008    1.164920    0.932726
H      1.366952    1.373972   -0.859069
H      0.823777   -1.264962    0.664532
H      0.755346   -1.057812   -1.110932
H     -2.349509    0.632733    1.435767
H     -0.891523   -0.142545    2.155902
H     -0.781840    1.493664    1.403003
H     -2.450404    0.938161   -1.182012
H     -0.877206    1.782357   -1.071366
H     -1.058243    0.362133   -2.169663
H     -1.563964   -1.964995   -1.133941
H     -2.847063   -1.251107   -0.093506
H     -1.495039   -2.173651    0.654443
23

C      1.710898    0.212364   -1.145862
C      0.823668   -0.523529   -0.120984
C      1.562784   -0.570173    1.232021
C     -0.649674    0.039387   -0.027505
C     -1.339366   -0.040005   -1.411137
C     -1.486613   -0.817952    0.952760
C     -0.690800    1.508519    0.453418
H      1.854435    1.276291   -0.867139
H      2.713419   -0.264696   -1.191261
H      1.287613    0.149064   -2.167983
H      0.754849   -1.577907   -0.472255
H      1.030296   -1.210422    1.963078
H      1.697323    0.446206    1.655224
H      2.570810   -1.018149    1.098234
H     -2.419514    0.210989   -1.331942
H     -1.253323   -1.063634   -1.835211
H     -0.897670    0.682979   -2.127958
H     -2.559605   -0.529151    0.917094
H     -1.154940   -0.676277    2.002310
H     -1.410944   -1.896359    0.695132
H     -0.147676    2.179063   -0.243511
H     -0.254255    1.616004    1.467419
H     -1.741714    1.867390    0.506056
23

C     -1.768430    1.298906   -0.604778
C     -1.458786   -0.186393   -0.365748
C     -1.812829   -0.608191    1.066122
C     -0.021318   -0.590688   -0.796245
C      1.125066   -0.378861    0.229797
C      2.417452   -1.008339   -0.311299
C      1.371780    1.101898    0.552866
H     -1.257252    1.954745    0.124145
H     -2.861201    1.472624   -0.504169
H     -1.470689    1.598222   -1.632020
H     -2.147955   -0.747006   -1.037175
H     -1.576497   -1.682870    1.218260
H     -1.257201   -0.002664    1.811876
H     -2.900003   -0.464909    1.244320
H      0.236898   -0.081433   -1.751060
H     -0.056841   -1.677487   -1.034262
H      0.881463   -0.910666    1.174624
H      3.234668   -0.917797    0.436078
H      2.265179   -2.089832   -0.515167
H      2.733667   -0.506737   -1.251386
H      0.594406    1.481224    1.244181
H      2.343551    1.232573    1.075501
H      1.384871    1.713683   -0.374461
21

C      1.730946   -0.365510    1.624941
C      1.392523   -0.355007    0.327130
C      2.341143    0.234397   -0.680977
C      0.052344   -0.895211   -0.122324
C     -0.951334    0.233775   -0.440345
C     -2.208669   -0.347371   -1.098643
C     -1.335698    1.020162    0.821620
H      2.686263    0.033647    1.952809
H      1.057264   -0.767279    2.375733
H      1.920130    0.172705   -1.706663
H      2.529108    1.302359   -0.441174
H      3.303123   -0.320120   -0.662067
H     -0.377000   -1.577567    0.645301
H      0.218772   -1.510650   -1.033420
H     -0.487284    0.939554   -1.164649
H     -2.714889   -1.062076   -0.414411
H     -1.940420   -0.877734   -2.037253
H     -2.919050    0.466925   -1.356813
H     -1.768427    0.343184    1.589268
H     -0.445879    1.528059    1.248871
H     -2.082966    1.803756    0.573065
21

C      1.721533    0.558532    1.100419
C      1.334381   -0.019804   -0.240053
C      2.394899   -0.234397   -1.289219
C      0.058822   -0.357596   -0.534406
C     -1.119805   -0.149620    0.395119
C     -2.137125   -1.280418    0.212271
C     -1.772588    1.207164    0.114978
H      2.799838    0.818431    1.135656
H      1.524989   -0.182964    1.902891
H      1.143609    1.484760    1.299460
H      3.399128    0.070915   -0.928576
H      2.437727   -1.309427   -1.565097
H      2.153743    0.363104   -2.193881
H     -0.155913   -0.746531   -1.527855
H     -0.794479   -0.173550    1.456737
H     -1.658251   -2.260710    0.423142
H     -2.984985   -1.150194    0.918407
H     -2.535167   -1.291312   -0.825604
H     -2.144318    1.255286   -0.931488
H     -2.626114    1.371271    0.806907
H     -1.039923    2.027059    0.270192
21

C      2.419139    0.528843   -0.380531
C      1.250520   -0.424710   -0.645274
C      0.029159    0.257844   -1.264678
C     -0.791443   -0.085307   -0.013302
C     -1.944486   -1.062482   -0.294334
C     -1.255678    1.156105    0.765769
C      0.438562   -0.763434    0.606626
H      3.200365    0.004447    0.208760
H      2.860172    0.853136   -1.346392
H      2.086711    1.427530    0.182622
H      1.559444   -1.333188   -1.208672
H      0.161937    1.351027   -1.428203
H     -0.314649   -0.266823   -2.183552
H     -2.390584   -1.408843    0.662104
H     -1.586138   -1.951183   -0.857748
H     -2.731306   -0.558919   -0.895237
H     -0.407368    1.848007    0.957774
H     -1.688789    0.851739    1.742229
H     -2.029501    1.701612    0.184975
H      0.809051   -0.263241    1.529645
H      0.324881   -1.862160    0.739610
21

C      1.342056    1.420081    0.464520
C      0.772292    0.079620   -0.030833
C      1.477615   -0.555426   -1.241641
C      0.291410   -0.891777    1.055664
C     -0.736774   -0.188261    0.159432
C     -1.454517   -1.075882   -0.871982
C     -1.590085    0.899506    0.834299
H      0.991459    2.236806   -0.200312
H      1.052885    1.654366    1.509160
H      2.451299    1.392708    0.433067
H      2.576636   -0.434098   -1.143820
H      1.278531   -1.642060   -1.338405
H      1.148493   -0.042755   -2.169416
H      0.455620   -1.969203    0.841056
H      0.355699   -0.513717    2.098178
H     -0.928802   -2.034100   -1.059590
H     -2.471900   -1.329624   -0.507717
H     -1.551553   -0.522457   -1.829172
H     -2.596859    0.496088    1.070569
H     -1.154504    1.263061    1.787118
H     -1.709002    1.757125    0.139826
23

C     -1.787264    0.871652   -0.942537
C     -1.323651    0.117065    0.311512
C      0.093984   -0.549610    0.236139
C      0.422428   -1.075045   -1.182550
C      0.088688   -1.772586    1.184521
C      1.219695    0.407264    0.743380
C      1.332412    1.753999    0.025841
H     -1.988651    0.159494   -1.770209
H     -2.734684    1.405837   -0.718612
H     -1.044851    1.617412   -1.282435
H     -1.362983    0.810807    1.179707
H     -2.098316   -0.658012    0.505209
H      1.401233   -1.601697   -1.188445
H     -0.357308   -1.791302   -1.520622
H      0.479539   -0.255370   -1.926303
H     -0.173301   -1.465632    2.220560
H     -0.653552   -2.530661    0.851807
H      1.087010   -2.261649    1.209856
H      2.203059   -0.106570    0.658122
H      1.065730    0.620346    1.824690
H      0.456481    2.393997    0.257127
H      2.235827    2.285309    0.392924
H      1.438477    1.624952   -1.069682
21

C     -1.562097    1.294316    1.162059
C     -1.315583    0.557863    0.070860
C     -0.173513   -0.448884   -0.013018
C     -0.196409   -1.122171   -1.403327
C     -0.382747   -1.547888    1.051008
C      1.204730    0.234522    0.232311
C      1.527717    1.380720   -0.733107
H     -2.388440    1.997603    1.164391
H     -0.951683    1.208333    2.054477
H     -1.966305    0.697292   -0.788818
H     -0.156428   -0.367778   -2.217073
H     -1.131989   -1.707549   -1.538490
H      0.665753   -1.813750   -1.520562
H     -1.377588   -2.028850    0.928183
H     -0.324871   -1.128797    2.078099
H      0.398122   -2.333900    0.960306
H      1.246555    0.636410    1.268003
H      2.015286   -0.523382    0.153802
H      1.657205    1.002416   -1.767744
H      2.480915    1.860015   -0.425387
H      0.731369    2.153458   -0.715974
19

C     -2.066588   -1.682007    0.387279
C     -1.288006   -0.779794    0.202217
C     -0.334399    0.325412   -0.024532
C     -0.940185    1.611784    0.566213
C     -0.133672    0.515890   -1.540504
C      1.010821    0.026939    0.693480
C      1.734295   -1.231163    0.198389
H     -2.749488   -2.473837    0.549675
H     -1.105854    1.502868    1.660460
H     -1.917770    1.844460    0.089649
H     -0.259609    2.475107    0.401434
H     -1.081767    0.837960   -2.023998
H      0.182503   -0.431256   -2.027019
H      0.638360    1.290802   -1.736772
H      0.827687   -0.089350    1.785138
H      1.699031    0.892140    0.569405
H      2.084012   -1.099735   -0.846309
H      1.074784   -2.121635    0.261388
H      2.625845   -1.414585    0.834407
17

C      1.810903   -1.706312    0.851264
C      1.069197   -0.833204    0.474346
C      0.161135    0.235265    0.012297
C      0.638252    1.571630    0.606611
C      0.206251    0.316402   -1.524112
C     -1.253315   -0.055630    0.485658
C     -1.904784   -1.184496    0.175631
H      2.461561   -2.472507    1.181940
H      0.618723    1.535951    1.718128
H     -0.018900    2.403914    0.272609
H      1.678085    1.798283    0.283833
H     -0.493863    1.097571   -1.891937
H      1.230461    0.572330   -1.873245
H     -0.079399   -0.653631   -1.984948
H     -1.769992    0.674076    1.104280
H     -1.439480   -1.954983   -0.430867
H     -2.914834   -1.344658    0.538513
23

C      3.396825   -0.667392   -0.218056
C      2.254491    0.337713   -0.101690
C      0.891553   -0.357425   -0.204135
C     -0.255064    0.657345   -0.071461
C     -1.644010    0.027953   -0.323294
C     -2.707579    1.128603   -0.430593
C     -2.033224   -0.965594    0.782102
H      3.352949   -1.189663   -1.197540
H      4.368769   -0.135831   -0.142330
H      3.337034   -1.416245    0.600309
H      2.354878    1.089828   -0.914439
H      2.334987    0.862275    0.875432
H      0.816775   -1.115195    0.604555
H      0.817267   -0.874693   -1.185996
H     -0.090394    1.466891   -0.817068
H     -0.227648    1.120155    0.940016
H     -1.624342   -0.516175   -1.293713
H     -3.702787    0.683464   -0.644672
H     -2.769053    1.707413    0.516233
H     -2.459797    1.823855   -1.260943
H     -1.359707   -1.846900    0.772638
H     -3.066319   -1.339378    0.616658
H     -1.985606   -0.481007    1.780909
21

C      3.105338    0.068480   -1.046336
C      2.470197    0.094785    0.129181
C      1.007063    0.428819    0.231752
C      0.139321   -0.716744   -0.320184
C     -1.385131   -0.471407   -0.224323
C     -1.837786    0.737459   -1.054490
C     -1.871710   -0.352672    1.226460
H      4.165014   -0.161685   -1.085752
H      2.577962    0.279240   -1.971766
H      3.032137   -0.099076    1.038180
H      0.813143    1.372576   -0.320395
H      0.769659    0.596645    1.302686
H      0.384482   -1.652078    0.230319
H      0.399938   -0.892155   -1.387108
H     -1.879134   -1.368446   -0.660067
H     -1.449101    0.660308   -2.092205
H     -1.484517    1.688721   -0.604124
H     -2.947296    0.767445   -1.102423
H     -2.982296   -0.363274    1.253110
H     -1.523581    0.593562    1.691113
H     -1.503702   -1.210502    1.828563
19

C      2.926863    1.423173    0.209355
C      2.331634    0.375391    0.172858
C      1.607280   -0.901546    0.129006
C      0.239288   -0.805831    0.827033
C     -0.900609   -0.310304   -0.095294
C     -0.707743    1.150896   -0.526388
C     -2.252413   -0.468226    0.613591
H      3.448519    2.343313    0.241299
H      2.228622   -1.658576    0.653180
H      1.493058   -1.228751   -0.926235
H     -0.020611   -1.829839    1.175920
H      0.308147   -0.167954    1.737043
H     -0.926060   -0.944307   -1.009347
H      0.166502    1.243803   -1.202706
H     -1.595992    1.508052   -1.090137
H     -0.559853    1.806040    0.358834
H     -3.079567   -0.154654   -0.058668
H     -2.285235    0.150630    1.536201
H     -2.421831   -1.531312    0.888177
21

C      2.019925   -0.926608   -1.537698
C      1.792128   -0.145719   -0.471135
C      2.732765    0.991177   -0.173566
C      0.609744   -0.418003    0.430788
C     -0.699990    0.023508   -0.233362
C     -1.897613   -0.230314    0.689180
C     -3.202976    0.206724    0.030852
H      2.868876   -0.743567   -2.189870
H      1.361981   -1.758776   -1.769792
H      2.762597    1.689126   -1.036969
H      2.408833    1.561407    0.721973
H      3.754056    0.595735    0.010573
H      0.568904   -1.503722    0.669638
H      0.730956    0.125526    1.392839
H     -0.641354    1.108835   -0.471377
H     -0.843603   -0.538702   -1.182343
H     -1.961732   -1.313829    0.930499
H     -1.767043    0.334791    1.637841
H     -3.371215   -0.362629   -0.908095
H     -4.050762    0.011776    0.720938
H     -3.174478    1.293266   -0.198723
19

C      2.519708   -1.683674   -0.542974
C      2.316421   -0.363490   -0.503179
C      1.146933    0.235973    0.228219
C     -0.169938   -0.038239   -0.508716
C     -1.337863    0.580632    0.225000
C     -1.542365    1.905199    0.170896
C     -2.289580   -0.282429    1.009405
H      3.381415   -2.084658   -1.066543
H      1.835400   -2.369920   -0.053328
H      3.032077    0.296685   -0.984370
H      1.101353   -0.176970    1.260059
H      1.306216    1.333378    0.304173
H     -0.120094    0.373261   -1.541217
H     -0.319292   -1.135634   -0.600607
H     -2.380677    2.360207    0.690275
H     -0.875673    2.549356   -0.394650
H     -3.311607   -0.198517    0.583116
H     -1.983626   -1.349160    0.984491
H     -2.308811    0.048001    2.069563
17

C      2.758932    0.983530    0.938081
C      2.063289    0.051033    0.622097
C      1.214471   -1.084547    0.237433
C      0.088436   -0.648658   -0.706687
C     -0.925428    0.228123   -0.004809
C     -0.851349    1.563718   -0.101037
C     -1.996593   -0.395657    0.847841
H      3.368957    1.802605    1.215244
H      1.848447   -1.837513   -0.276602
H      0.792167   -1.553883    1.151577
H     -0.425744   -1.556710   -1.089154
H      0.515779   -0.130711   -1.594524
H     -0.074868    2.039196   -0.692713
H     -1.566151    2.198215    0.414657
H     -1.910439   -1.502748    0.848434
H     -1.901802   -0.036296    1.894437
H     -2.998105   -0.119698    0.455398
21

C      2.925891    0.893475    0.211107
C      1.820098   -0.110630    0.112694
C      0.924631   -0.054126   -0.882735
C     -0.206362   -1.045579   -0.989594
C     -1.499891   -0.575721   -0.288246
C     -2.037346    0.729905   -0.890471
C     -1.321048   -0.443278    1.230154
H      2.501689    1.914781    0.312459
H      3.563065    0.845804   -0.697141
H      3.552167    0.675014    1.101195
H      1.749537   -0.888998    0.867623
H      0.998403    0.730189   -1.631568
H      0.106816   -2.031175   -0.579361
H     -0.422478   -1.209303   -2.067505
H     -2.268435   -1.361379   -0.462041
H     -2.174423    0.618501   -1.987155
H     -1.339955    1.573005   -0.698382
H     -3.023079    0.977750   -0.442067
H     -2.302256   -0.242985    1.711003
H     -0.632104    0.391431    1.479056
H     -0.914919   -1.386682    1.653166
21

C      2.618065   -0.167125    0.659049
C      1.983751    0.696850   -0.391380
C      0.828865    0.399452   -1.013285
C     -0.013551   -0.825362   -0.727257
C     -1.332902   -0.496638    0.005862
C     -2.236266    0.435836   -0.813673
C     -1.083598    0.077524    1.406414
H      1.932869   -0.289440    1.522739
H      2.873243   -1.160535    0.234169
H      3.553245    0.311157    1.018015
H      2.494453    1.614835   -0.667712
H      0.462190    1.097534   -1.759972
H      0.547340   -1.583958   -0.142573
H     -0.253959   -1.307330   -1.699255
H     -1.882244   -1.455671    0.135280
H     -3.229302    0.527342   -0.324098
H     -1.792555    1.450515   -0.896731
H     -2.390907    0.023424   -1.833416
H     -2.050093    0.236638    1.930532
H     -0.548178    1.049022    1.348391
H     -0.480467   -0.634073    2.008901
19

C      1.000275    3.374701    1.268115
C      0.302157    2.118203    0.997095
C     -0.271847    1.082077    0.772975
C     -0.969533   -0.181506    0.499145
C     -0.320998   -0.943307   -0.673586
C     -1.201167   -2.130264   -1.083625
C      1.089765   -1.435434   -0.315091
H      0.909693    3.623363    2.345519
H      2.072015    3.266886    1.002372
H      0.548959    4.186888    0.661893
H     -0.963202   -0.806153    1.418271
H     -2.025451    0.061554    0.253134
H     -0.243545   -0.260636   -1.549713
H     -0.748760   -2.664380   -1.946435
H     -1.315459   -2.843852   -0.239225
H     -2.207568   -1.773920   -1.390927
H      1.754280   -0.576686   -0.082677
H      1.533384   -1.984684   -1.172862
H      1.057002   -2.112851    0.565232
21

C      2.800625    0.586514   -1.043327
C      2.275686   -0.033683    0.248507
C      0.781901    0.102135    0.352353
C     -0.044807   -0.611530   -0.431121
C     -1.550669   -0.503847   -0.344469
C     -2.029589    0.911604   -0.687151
C     -2.064917   -0.946630    1.030229
H      2.517782    1.659626   -1.097535
H      2.389553    0.053974   -1.927068
H      3.907967    0.508916   -1.068667
H      2.562660   -1.106514    0.296894
H      2.745568    0.486832    1.110434
H      0.377390    0.777235    1.100560
H      0.374772   -1.298102   -1.161745
H     -1.980994   -1.195694   -1.101818
H     -1.648016    1.211706   -1.686595
H     -1.676909    1.646274    0.067693
H     -3.139745    0.940050   -0.716605
H     -3.175777   -0.957052    1.034484
H     -1.715023   -0.258237    1.828665
H     -1.707458   -1.973577    1.258471
21

C      2.212500   -1.197066    0.406385
C      1.660865    0.221390    0.311264
C      1.052233    0.461903   -1.045470
C     -0.260676    0.449782   -1.359720
C     -1.448450    0.277018   -0.428305
C     -1.662078    1.490273    0.484960
C     -1.437321   -1.047913    0.344492
H      3.000732   -1.355470   -0.360535
H      1.404037   -1.942278    0.253743
H      2.658066   -1.356414    1.410873
H      2.501077    0.935658    0.444987
H      0.958835    0.405765    1.140398
H      1.754471    0.590783   -1.864805
H     -0.503925    0.589441   -2.409995
H     -2.344338    0.234391   -1.087689
H     -0.864787    1.592720    1.244656
H     -1.694967    2.420547   -0.121606
H     -2.632503    1.392583    1.016940
H     -2.450721   -1.247606    0.753674
H     -1.169203   -1.886656   -0.332829
H     -0.733849   -1.028851    1.198582
19

C      3.322182    0.952324    0.177175
C      2.336079    0.481381   -0.580540
C      0.992699    0.251477   -0.025556
C      0.003813   -0.222466   -0.791861
C     -1.389199   -0.473744   -0.266032
C     -2.046668    0.823246    0.220257
C     -1.388418   -1.542120    0.833741
H      3.165514    1.180334    1.224393
H      4.302932    1.114242   -0.250840
H      2.534028    0.265806   -1.624099
H      0.808897    0.471391    1.019565
H      0.195468   -0.440102   -1.836627
H     -2.001375   -0.862857   -1.109462
H     -3.103234    0.629917    0.503879
H     -1.513557    1.234990    1.103500
H     -2.038673    1.582442   -0.590958
H     -0.838624   -1.190318    1.732529
H     -2.431787   -1.782864    1.129662
H     -0.910077   -2.473077    0.460884
19

C      3.303748   -0.434722    0.430926
C      1.993019   -0.395996    0.208590
C      1.296426    0.890973    0.007737
C     -0.021341    1.011554   -0.210769
C     -0.994693   -0.145374   -0.267020
C     -1.329557   -0.635393    1.147326
C     -2.277107    0.276130   -0.993902
H      3.800104   -1.385609    0.575499
H      3.894027    0.472498    0.471793
H      1.453978   -1.332899    0.177631
H      1.885589    1.800951    0.027975
H     -0.408324    2.013014   -0.363778
H     -0.551744   -0.980593   -0.851470
H     -2.028270   -1.497613    1.097153
H     -0.413220   -0.968338    1.677302
H     -1.804394    0.176519    1.739590
H     -2.036680    0.620342   -2.022780
H     -2.973924   -0.585735   -1.072312
H     -2.787638    1.100289   -0.449880
17

C      3.985056    0.373211   -0.466009
C      2.799263    0.311861   -0.674344
C      1.384802    0.238807   -0.923741
C      0.528370    0.029499    0.077772
C     -0.958752   -0.052065   -0.151233
C     -1.475338   -1.428773    0.274463
C     -1.666547    1.057512    0.630604
H      5.026009    0.427045   -0.282968
H      1.031315    0.357215   -1.940236
H      0.902433   -0.086700    1.089880
H     -1.195522    0.084334   -1.230578
H     -0.967480   -2.223892   -0.312591
H     -1.285883   -1.604523    1.355664
H     -2.567636   -1.502705    0.085443
H     -1.482399    0.950832    1.721698
H     -2.761394    1.016709    0.446335
H     -1.296296    2.051632    0.299841
17

C      1.795732    1.888683    0.982278
C      1.273419    1.555988   -0.052405
C      0.656496    1.168877   -1.294727
C     -0.211732    0.154264   -1.418954
C     -0.696477   -0.754103   -0.306390
C      0.438565   -1.584877    0.304517
C     -1.487206    0.006679    0.764904
H      2.253371    2.179575    1.890953
H      0.916010    1.738356   -2.177892
H     -0.607299   -0.037849   -2.409468
H     -1.404299   -1.476116   -0.771171
H      1.009931   -2.099914   -0.497127
H      0.016007   -2.359035    0.980014
H      1.134266   -0.955432    0.895034
H     -0.830953    0.668726    1.364853
H     -1.973847   -0.714517    1.455721
H     -2.281985    0.620696    0.289860
19

C      3.125052    0.459035    0.506966
C      2.257449    0.995277   -0.624709
C      0.896449    0.458003   -0.527240
C     -0.222282    0.015648   -0.445186
C     -1.585845   -0.525090   -0.343046
C     -1.625636   -1.649521    0.693922
C     -2.565387    0.591964    0.022867
H      3.187223   -0.649324    0.454900
H      2.704554    0.757441    1.491491
H      4.150137    0.876418    0.417924
H      2.215195    2.103507   -0.569044
H      2.695065    0.700988   -1.601909
H     -1.871722   -0.941551   -1.333082
H     -2.648750   -2.078542    0.752078
H     -0.925936   -2.462827    0.403818
H     -1.338318   -1.269816    1.698607
H     -2.539842    1.391756   -0.748384
H     -3.600382    0.191090    0.070594
H     -2.307024    1.035542    1.009044
17

C      3.504046   -0.335376   -0.107154
C      2.765783    0.486188    0.630656
C      1.333588    0.364173    0.658106
C      0.132359    0.261386    0.680430
C     -1.332514    0.134881    0.706920
C     -1.737721   -1.311363    0.414735
C     -1.958839    1.094277   -0.307201
H      3.046637   -1.115191   -0.704470
H      4.581246   -0.231780   -0.118195
H      3.242589    1.258503    1.220062
H     -1.688424    0.407375    1.723937
H     -1.392242   -1.621349   -0.595570
H     -2.842795   -1.414867    0.462832
H     -1.293505   -1.993801    1.171157
H     -3.066654    1.020667   -0.267901
H     -1.673551    2.141940   -0.070076
H     -1.620002    0.854335   -1.338592
15

C      4.310030   -0.370473    0.436033
C      3.108159   -0.280127    0.440956
C      1.700601   -0.174309    0.446645
C      0.498348   -0.083871    0.451074
C     -0.968244    0.026409    0.456817
C     -1.580559   -1.094080   -0.386279
C     -1.391773    1.399959   -0.067794
H      5.365375   -0.449803    0.431704
H     -1.322449   -0.080611    1.504840
H     -2.689294   -1.029390   -0.358970
H     -1.243215   -1.021811   -1.443214
H     -1.282220   -2.085027    0.018977
H     -1.048923    1.544955   -1.115442
H     -0.957660    2.202713    0.566514
H     -2.498175    1.495467   -0.036551
21

C      3.115025   -0.178538   -0.032271
C      1.729747    0.036921   -0.634404
C      0.798527    0.740435    0.358606
C     -0.566904    0.952687   -0.246757
C     -1.572402    0.049417   -0.197166
C     -2.889787    0.356925   -0.860995
C     -1.440766   -1.257030    0.545808
H      3.768475   -0.683873   -0.774308
H      3.046195   -0.817649    0.873774
H      3.573793    0.795986    0.239612
H      1.308410   -0.949104   -0.923499
H      1.829049    0.655152   -1.553481
H      0.731802    0.168095    1.307971
H      1.225217    1.736514    0.606780
H     -0.722159    1.891679   -0.771681
H     -2.860607    1.308732   -1.433660
H     -3.683043    0.435004   -0.088312
H     -3.150824   -0.461571   -1.564264
H     -2.371623   -1.856473    0.457121
H     -1.261050   -1.065554    1.624327
H     -0.607076   -1.857755    0.128988
21

C      1.645599    1.256521    0.324880
C      0.979674   -0.125503    0.253676
C      1.088473   -0.777880   -1.125964
C     -0.433021   -0.829882   -1.235052
C     -0.563374   -0.169630    0.145776
C     -1.294355    1.187402    0.089150
C     -1.197678   -1.104607    1.190735
H      2.748714    1.130814    0.329875
H      1.376366    1.893343   -0.543518
H      1.349177    1.768340    1.264166
H      1.379845   -0.795659    1.048037
H      1.543267   -0.127065   -1.905310
H      1.542059   -1.792079   -1.078965
H     -0.809369   -0.204281   -2.074561
H     -0.812732   -1.874950   -1.276261
H     -1.175567    1.726303    1.052796
H     -0.911391    1.827375   -0.732954
H     -2.378341    1.025071   -0.091183
H     -2.271061   -1.268826    0.956416
H     -1.116919   -0.651646    2.201704
H     -0.689366   -2.093160    1.206557
21

C      2.737037   -0.120384    0.731580
C      1.246379    0.113945    0.945760
C      0.445802   -0.398070   -0.264367
C     -0.023900    0.676374   -1.249313
C     -1.040395   -0.032638   -0.354602
C     -1.676879    0.811233    0.760406
C     -1.933026   -1.064533   -1.051156
H      3.085517    0.428909   -0.169059
H      2.943249   -1.204488    0.602960
H      3.302766    0.246135    1.614030
H      0.922057   -0.444753    1.849411
H      1.090294    1.197172    1.133049
H      0.733117   -1.367481   -0.727486
H      0.224609    1.722901   -0.971583
H     -0.002819    0.345173   -2.309437
H     -2.704959    1.105451    0.462280
H     -1.113377    1.743466    0.970033
H     -1.739061    0.207848    1.689952
H     -2.309025   -1.791747   -0.301539
H     -2.799103   -0.550949   -1.518574
H     -1.388284   -1.623563   -1.842341
21

C      1.776401    0.591802   -0.892669
C      0.593692    0.098030   -0.038212
C      1.113531   -0.358603    1.342885
C     -0.471065    1.190658    0.124409
C     -1.801492    0.462471    0.286642
C     -1.602801   -0.952338   -0.255927
C     -0.157035   -1.045435   -0.733112
H      2.516806   -0.224453   -1.035792
H      2.282077    1.447005   -0.394798
H      1.431540    0.927550   -1.894454
H      1.848783   -1.184039    1.228411
H      1.614640    0.483094    1.867747
H      0.280771   -0.721085    1.983117
H     -0.266755    1.857931    0.990732
H     -0.524664    1.821562   -0.791348
H     -2.078755    0.419129    1.362960
H     -2.607705    0.991018   -0.267601
H     -2.305689   -1.159518   -1.092319
H     -1.781768   -1.695644    0.551959
H     -0.141484   -0.906906   -1.837689
H      0.280971   -2.042230   -0.504941
19

C     -1.353119   -0.689049   -1.120749
C     -0.487125   -0.058641   -0.017344
C     -1.375007    0.638723    1.027347
C      0.339097   -1.111478    0.648002
C      1.632624   -0.844285    0.605414
C      1.926861    0.432912   -0.092652
C      0.565511    0.915805   -0.604349
H     -2.071265   -1.416986   -0.684970
H     -1.927827    0.097638   -1.655186
H     -0.718171   -1.224847   -1.859625
H     -2.079022   -0.087434    1.488502
H     -1.967093    1.449349    0.550717
H     -0.753642    1.085083    1.834189
H     -0.069526   -1.990209    1.137899
H      2.388730   -1.479383    1.055146
H      2.361130    1.160404    0.626288
H      2.633353    0.257409   -0.932105
H      0.565840    0.896745   -1.717174
H      0.388649    1.968242   -0.289352
21

C      1.817914    0.875629   -0.605680
C      0.561664    0.161243   -1.128548
C     -0.833864    0.603116   -0.645339
C     -0.936193    1.797863    0.315476
C     -0.235818   -0.731147   -0.160322
C     -0.878860   -1.972762   -0.789568
C      0.204442   -0.877458    1.309429
H      2.210511    1.531566   -1.409879
H      2.594616    0.118918   -0.369235
H      1.655128    1.510336    0.284798
H      0.595395   -0.206775   -2.176885
H     -1.601094    0.542223   -1.447340
H     -0.383963    1.677804    1.265307
H     -2.004367    1.948956    0.574838
H     -0.575872    2.713183   -0.198675
H     -0.152082   -2.811802   -0.779099
H     -1.772788   -2.265482   -0.199911
H     -1.193920   -1.798030   -1.841036
H     -0.693221   -0.865175    1.962324
H      0.716112   -1.853595    1.442379
H      0.906260   -0.098612    1.659157
21

C      2.107914    0.422270   -0.825906
C      0.874745    0.532007    0.077680
C     -0.452567    0.795347   -0.647950
C     -1.419927    1.740911    0.072699
C     -0.184506   -0.580155   -0.012928
C      0.036904   -1.736379   -1.001108
C     -0.887295   -0.937429    1.306476
H      2.710689    1.348058   -0.721878
H      1.853511    0.303590   -1.899516
H      2.728893   -0.437847   -0.499832
H      1.003262    1.000924    1.077176
H     -0.419950    0.833037   -1.758312
H     -2.447222    1.323507    0.026111
H     -1.416640    2.720608   -0.448256
H     -1.146025    1.921055    1.132865
H      0.849135   -2.393259   -0.625638
H      0.297794   -1.389043   -2.021926
H     -0.893863   -2.336307   -1.080568
H     -1.965634   -1.117205    1.114124
H     -0.442962   -1.866711    1.720573
H     -0.786255   -0.146980    2.078302
23

C     -3.149513   -0.061395    0.426956
C     -1.649003   -0.324122    0.519528
C     -0.906687    0.292709   -0.679133
C      0.625414    0.070036   -0.664811
C      0.983639   -1.422374   -0.769271
C      1.292543    0.740280    0.559651
C      2.805965    0.887317    0.398121
H     -3.564076   -0.512229   -0.499862
H     -3.661362   -0.515268    1.301662
H     -3.350927    1.031098    0.425656
H     -1.276136    0.114265    1.469009
H     -1.488060   -1.422298    0.547169
H     -1.107535    1.386625   -0.705784
H     -1.320601   -0.132942   -1.620048
H      1.015451    0.565797   -1.582104
H      0.785097   -1.949885    0.187335
H      0.394513   -1.906594   -1.576975
H      2.057458   -1.544076   -1.021598
H      1.087395    0.155734    1.482373
H      0.867009    1.757901    0.700807
H      3.215516    1.454542    1.260448
H      3.297774   -0.107041    0.374609
H      3.046126    1.441922   -0.533738
21

C      2.079314    0.118379    1.517503
C      1.759991   -0.472596    0.362559
C      1.035942    0.262698   -0.737625
C     -0.446440   -0.159719   -0.879371
C     -0.566868   -1.631512   -1.303998
C     -1.284200    0.100482    0.395043
C     -1.425975    1.587756    0.720442
H      1.839591    1.160890    1.701026
H      2.587411   -0.446071    2.292479
H      2.006014   -1.520772    0.222207
H      1.102948    1.361752   -0.587775
H      1.564389    0.056646   -1.693296
H     -0.883072    0.445667   -1.705081
H     -1.624153   -1.873182   -1.544836
H     -0.228305   -2.308733   -0.491424
H      0.043088   -1.823526   -2.212375
H     -2.307881   -0.307571    0.244601
H     -0.844051   -0.428021    1.267823
H     -1.817649    2.142714   -0.158289
H     -2.137951    1.714373    1.563092
H     -0.452142    2.020347    1.027295
19

C      2.746040    1.884294    0.650609
C      2.195505    0.820550    0.513920
C      1.524232   -0.476299    0.347388
C      0.159549   -0.325758   -0.358506
C     -0.360016   -1.713317   -0.769260
C     -0.857225    0.406082    0.553050
C     -2.144468    0.790162   -0.178098
H      3.228857    2.818300    0.770544
H      2.196196   -1.123827   -0.255808
H      1.393650   -0.949162    1.344604
H      0.310219    0.269078   -1.288021
H     -0.586663   -2.328955    0.127629
H      0.399238   -2.243795   -1.382771
H     -1.275222   -1.623472   -1.389558
H     -1.109724   -0.227168    1.431662
H     -0.404329    1.344858    0.938408
H     -1.911970    1.355908   -1.105192
H     -2.764605    1.433861    0.480893
H     -2.739264   -0.111339   -0.431496
21

C     -2.649204    1.643378   -0.334729
C     -1.953704    0.545109   -0.645414
C     -0.878870   -0.007252    0.260968
C     -1.225838   -1.457366    0.622876
C      0.488190    0.103405   -0.446566
C      1.667005   -0.220662    0.484246
C      3.002032    0.038940   -0.208321
H     -3.407130    2.015196   -1.016486
H     -2.471852    2.178951    0.592766
H     -2.155230    0.045522   -1.589255
H     -0.841986    0.583009    1.204638
H     -2.252698   -1.509506    1.044789
H     -1.175666   -2.111311   -0.274363
H     -0.530223   -1.845984    1.394824
H      0.611653    1.146330   -0.816110
H      0.514102   -0.573238   -1.329762
H      1.610145    0.408468    1.399043
H      1.633273   -1.288724    0.785706
H      3.834383   -0.214801    0.481503
H      3.089622    1.109866   -0.490262
H      3.091996   -0.589330   -1.120091
19

C      2.467781   -1.268264    0.649499
C      2.037327   -0.145578    0.066751
C      0.757375    0.528992    0.485486
C     -0.346744    0.355163   -0.577420
C     -0.816572   -1.103410   -0.686950
C     -1.515168    1.275058   -0.298107
C     -2.253397    1.194945    0.815492
H      3.383993   -1.739023    0.308401
H      1.913096   -1.727567    1.461995
H      2.604036    0.272122   -0.760219
H      0.410721    0.144375    1.470366
H      0.976204    1.611402    0.613622
H      0.070929    0.650386   -1.566118
H      0.014564   -1.750572   -1.037998
H     -1.170692   -1.482444    0.295288
H     -1.645035   -1.183689   -1.423019
H     -1.764555    2.034260   -1.033843
H     -2.042845    0.453687    1.579490
H     -3.081020    1.880156    0.966894
17

C      3.301123   -0.156775   -0.470204
C      2.122345   -0.396620   -0.549407
C      0.685529   -0.688681   -0.646261
C     -0.090828   -0.108249    0.552970
C     -0.102586    1.428403    0.543976
C     -1.501326   -0.653884    0.597164
C     -2.390571   -0.449545   -0.382118
H      4.335787    0.054108   -0.400387
H      0.299232   -0.273432   -1.601511
H      0.562915   -1.792909   -0.672762
H      0.414665   -0.436786    1.489047
H     -0.538257    1.817862   -0.400674
H      0.930571    1.822437    0.646389
H     -0.700258    1.810462    1.399214
H     -1.804216   -1.238579    1.461048
H     -2.134120    0.126445   -1.265287
H     -3.390006   -0.864256   -0.301195
19

C     -2.817585    2.029687   -0.251158
C     -2.057607    1.123253   -0.017176
C     -1.129794    0.017023    0.269428
C     -1.557237   -1.219974   -0.530258
C      0.311731    0.457829   -0.058684
C      1.364280   -0.545881    0.436746
C      2.777737   -0.009984    0.226015
H     -3.484489    2.825211   -0.456674
H     -1.206790   -0.213442    1.354326
H     -0.963240   -2.106233   -0.226295
H     -2.625789   -1.454555   -0.332988
H     -1.424748   -1.050177   -1.620722
H      0.423442    0.602917   -1.156547
H      0.506025    1.437683    0.433549
H      1.214900   -0.745783    1.520102
H      1.269244   -1.503594   -0.116938
H      3.516341   -0.759577    0.580454
H      2.959208    0.185398   -0.852428
H      2.924370    0.930200    0.799246
17

C      2.467868    2.046058    0.552681
C      1.618283    1.190590    0.569487
C      0.581093    0.147099    0.590874
C      1.219566   -1.212860    0.283902
C     -0.527847    0.500792   -0.419554
C     -1.698052   -0.443960   -0.338555
C     -2.527563   -0.449031    0.708975
H      3.213510    2.796828    0.537761
H      0.154458    0.118477    1.616872
H      1.650881   -1.223393   -0.740614
H      0.463096   -2.021948    0.362719
H      2.027660   -1.430864    1.015219
H     -0.115006    0.471724   -1.452116
H     -0.893601    1.535930   -0.236746
H     -1.887996   -1.119483   -1.167399
H     -2.377222    0.227657    1.544620
H     -3.369128   -1.133616    0.731547
15

C     -2.884326    1.050987   -0.568248
C     -1.726402    0.769671   -0.751104
C     -0.315173    0.426544   -0.974298
C      0.418028    0.165347    0.353287
C     -0.091582   -1.103439    1.048569
C      1.862299    0.037637    0.101942
C      3.045881   -0.066270   -0.103691
H     -3.900739    1.297736   -0.407321
H     -0.259250   -0.467697   -1.632312
H      0.160781    1.278750   -1.506482
H      0.268505    1.032560    1.033717
H     -1.167042   -0.999544    1.304829
H      0.036417   -1.991099    0.391676
H      0.468012   -1.273593    1.993708
H      4.084590   -0.157592   -0.284272
21

C      0.942871    1.207545   -1.386508
C      0.658571    0.358775   -0.385626
C      1.571348    0.274764    0.815985
C      2.856188   -0.476496    0.479505
C     -0.575773   -0.510423   -0.459622
C     -1.840961    0.309189   -0.181189
C     -3.088178   -0.568423   -0.229856
H      0.298253    1.277517   -2.257565
H      1.823250    1.841899   -1.345865
H      1.818910    1.297911    1.173866
H      1.060632   -0.250448    1.651654
H      3.493964   -0.546141    1.385752
H      3.423805    0.057491   -0.311938
H      2.619306   -1.504513    0.130950
H     -0.638750   -0.980264   -1.465996
H     -0.503074   -1.334208    0.283586
H     -1.768130    0.776663    0.825223
H     -1.942629    1.117411   -0.937790
H     -3.195083   -1.031159   -1.234112
H     -3.027629   -1.368392    0.538560
H     -3.986889    0.051301   -0.026823
19

C      1.748813   -1.083813   -1.281053
C      1.670922    0.157793   -0.793430
C      1.363386    0.418665    0.654111
C     -0.077006    0.082779    0.964514
C     -0.379593   -1.037571    1.640062
C     -1.177958    1.008298    0.498248
C     -1.982932    0.386998   -0.640795
H      1.587716   -1.946088   -0.641118
H      1.975024   -1.241836   -2.330427
H      1.841817    1.000192   -1.457154
H      2.066169   -0.158488    1.295045
H      1.538122    1.493754    0.872753
H     -1.410898   -1.287164    1.870390
H      0.398009   -1.718616    1.972279
H     -1.853952    1.245613    1.348257
H     -0.743947    1.966482    0.139079
H     -2.486528   -0.542993   -0.302057
H     -1.317651    0.151726   -1.498786
H     -2.759514    1.104267   -0.980308
17

C      2.982596   -0.141912    1.134270
C      2.167142   -0.064880    0.249703
C      1.174011    0.029180   -0.826345
C     -0.186758   -0.390295   -0.323363
C     -0.428563   -1.682396   -0.045989
C     -1.290983    0.631839   -0.172022
C     -1.561891    0.932923    1.299435
H      3.698105   -0.209643    1.911021
H      1.483481   -0.621757   -1.671675
H      1.157974    1.076299   -1.194010
H     -1.406291   -2.005217    0.298958
H      0.348671   -2.431724   -0.163570
H     -2.220217    0.257032   -0.653959
H     -1.017171    1.581035   -0.680141
H     -2.355038    1.705724    1.380732
H     -0.640442    1.315513    1.788449
H     -1.904626    0.018276    1.828180
19

C      1.356593   -2.105547   -0.286470
C      1.564269   -1.303750    0.758533
C      0.985021    0.058883    0.888508
C      1.130571    0.709787    2.047832
C      0.199078    0.710974   -0.228340
C     -1.276202    0.298071   -0.169328
C     -2.071598    0.929628   -1.307883
H      0.735645   -1.820272   -1.123283
H      1.810786   -3.087763   -0.305533
H      2.184886   -1.683060    1.562586
H      1.672545    0.268219    2.875330
H      0.704832    1.695134    2.192644
H      0.272445    1.818990   -0.151248
H      0.637692    0.442346   -1.212575
H     -1.365543   -0.807450   -0.239806
H     -1.715144    0.622308    0.799544
H     -2.022623    2.037638   -1.244825
H     -1.668672    0.599290   -2.289016
H     -3.134580    0.616574   -1.237059
17

C      3.308054    0.859536    0.711408
C      2.328832    0.240401    0.377895
C      1.156614   -0.498807   -0.019877
C      1.221001   -1.317611   -1.071639
C     -0.113807   -0.361476    0.777549
C     -1.177065    0.417896   -0.006294
C     -2.453620    0.584628    0.812814
H      4.167566    1.403069    1.004195
H      2.137539   -1.424861   -1.639651
H      0.358082   -1.895778   -1.377958
H      0.097742    0.172731    1.730545
H     -0.497182   -1.372467    1.039009
H     -1.424787   -0.119471   -0.947419
H     -0.783677    1.424302   -0.269192
H     -3.204290    1.149099    0.220492
H     -2.242375    1.147586    1.746905
H     -2.878627   -0.408775    1.070893
21

C      3.225267   -0.426707   -0.395504
C      1.768984   -0.460675   -0.050104
C      0.860774    0.147708   -0.829682
C     -0.620135    0.139669   -0.518467
C     -1.170538   -1.294476   -0.549293
C     -0.899996    0.849114    0.825210
C     -2.384496    1.147258    1.037599
H      3.390617   -0.899674   -1.386544
H      3.583714    0.624003   -0.422473
H      3.805026   -0.984234    0.369539
H      1.458197   -0.988587    0.846576
H      1.192564    0.671187   -1.722876
H     -1.124724    0.712196   -1.328309
H     -2.279750   -1.285366   -0.520137
H     -0.794223   -1.884433    0.313349
H     -0.864563   -1.801004   -1.489852
H     -0.352907    1.817577    0.845824
H     -0.529486    0.233834    1.673849
H     -2.960837    0.207183    1.161105
H     -2.792760    1.723120    0.180071
H     -2.510729    1.752307    1.960120
21

C      2.363488    0.755410   -0.346667
C      1.773647    0.165189    0.900427
C      0.575814   -0.444929    0.948971
C     -0.354554   -0.616572   -0.236603
C     -0.652881   -2.106744   -0.427458
C     -1.663402    0.166845   -0.015288
C     -1.439579    1.679351   -0.019132
H      2.509300   -0.035970   -1.111699
H      3.350891    1.205977   -0.113890
H      1.698779    1.550492   -0.745011
H      2.349997    0.240224    1.818040
H      0.240411   -0.824448    1.910679
H      0.111150   -0.257665   -1.178814
H     -1.303298   -2.257621   -1.315491
H      0.292708   -2.666383   -0.593805
H     -1.165012   -2.524507    0.466403
H     -2.131800   -0.131517    0.948678
H     -2.381000   -0.074780   -0.829947
H     -2.414285    2.198396    0.096623
H     -0.780479    1.979992    0.822332
H     -0.979897    1.999258   -0.978348
19

C     -2.166744    1.340038    0.583534
C     -1.659941    0.506414   -0.330041
C     -0.876718   -0.721778    0.072583
C     -0.655605   -1.650714   -1.126546
C      0.440755   -0.344174    0.711630
C      1.365638    0.393327    0.076673
C      2.656803    0.750456    0.744750
H     -2.728901    2.213510    0.269687
H     -2.024512    1.158328    1.644613
H     -1.828267    0.720954   -1.382159
H     -1.476155   -1.287323    0.820264
H     -1.634400   -1.981417   -1.535422
H     -0.090211   -1.135852   -1.932679
H     -0.088863   -2.552768   -0.810722
H      0.632723   -0.682070    1.726796
H      1.184643    0.746551   -0.934584
H      3.277761    1.362092    0.057337
H      3.215112   -0.172751    1.007728
H      2.456881    1.337179    1.666167
19

C     -2.019959    0.377944    1.375148
C     -1.436216   -0.208774    0.325635
C     -0.142855   -0.975159    0.468782
C      0.191676   -1.763322   -0.802540
C      1.012895   -0.094310    0.911053
C      1.452430    1.027978    0.305757
C      0.865861    1.631378   -0.937866
H     -1.573307    0.326092    2.363509
H     -2.953088    0.916651    1.246782
H     -1.920253   -0.141645   -0.645142
H     -0.297949   -1.733297    1.268883
H     -0.576527   -2.548967   -0.967648
H      0.209142   -1.113277   -1.698487
H      1.178538   -2.262914   -0.697315
H      1.528702   -0.397354    1.818255
H      2.288888    1.551195    0.760666
H      1.389623    2.584312   -1.161222
H     -0.208784    1.863083   -0.798704
H      1.011183    0.960384   -1.805935
17

C      2.082728    1.576080   -1.849712
C      1.594172    0.794277   -1.072423
C      0.998909   -0.160267   -0.124998
C      1.710923   -0.058489    1.226369
C     -0.477935    0.113848    0.022503
C     -1.294832   -0.770982    0.612267
C     -2.760844   -0.497450    0.745235
H      2.511415    2.262320   -2.531747
H      1.143367   -1.182708   -0.537262
H      1.575635    0.953660    1.666375
H      1.305832   -0.812971    1.933743
H      2.797972   -0.254360    1.102786
H     -0.896277    1.036428   -0.375877
H     -0.898557   -1.705038    1.001290
H     -3.255789   -1.348471    1.258097
H     -2.921342    0.424561    1.343026
H     -3.215377   -0.370436   -0.259997
17

C      2.824485    1.655140    0.057672
C      1.868726    0.920093    0.075137
C      0.703699    0.023840    0.094998
C      1.089296   -1.313591    0.728438
C     -0.415977    0.671266    0.878014
C     -1.722571    0.498790    0.608720
C     -2.237121   -0.317875   -0.540999
H      3.663254    2.300202    0.042519
H      0.403767   -0.148158   -0.959917
H      0.219222   -2.003660    0.728645
H      1.429530   -1.169386    1.777251
H      1.907929   -1.790777    0.147632
H     -0.155860    1.262447    1.753095
H     -2.450343    0.976829    1.258135
H     -1.871920   -1.363132   -0.465798
H     -3.346909   -0.330054   -0.520591
H     -1.909207    0.128026   -1.503278
19

C      3.677560   -0.017503    0.350701
C      2.242867   -0.007309    0.065838
C      1.060117    0.000811   -0.168489
C     -0.383302    0.011117   -0.454372
C     -0.855006   -1.422822   -0.724585
C     -1.134796    0.661032    0.724894
C     -2.608197    0.925337    0.413217
H      4.172941    0.797901   -0.215470
H      3.839913    0.135399    1.437490
H      4.108156   -0.993597    0.046277
H     -0.540257    0.619216   -1.371797
H     -0.239747   -1.884613   -1.527035
H     -1.909155   -1.427896   -1.070618
H     -0.770924   -2.045248    0.192517
H     -1.061251    0.018508    1.630125
H     -0.660678    1.638702    0.965886
H     -2.708541    1.513111   -0.523896
H     -3.167318   -0.028006    0.315166
H     -3.062382    1.505859    1.243762
17

C     -2.345990    0.675271    1.455771
C     -1.090534    0.248260    1.289045
C     -0.186806    0.822082    0.228907
C      1.002832    1.529586    0.877291
C      0.285211   -0.261345   -0.643374
C      0.672724   -1.150406   -1.359907
C      1.143075   -2.229195   -2.228609
H     -2.965174    0.245178    2.236261
H     -2.765700    1.450997    0.822728
H     -0.705900   -0.523024    1.951514
H     -0.733433    1.557117   -0.402164
H      0.644323    2.358152    1.525092
H      1.663833    1.962163    0.095484
H      1.595455    0.821175    1.496707
H      0.285301   -2.869025   -2.521330
H      1.608343   -1.795830   -3.137764
H      1.892441   -2.841156   -1.685652
15

C     -1.600432    2.564398   -0.298231
C     -1.341141    1.459611    0.109803
C     -1.026795    0.114781    0.607696
C     -1.855199   -0.933472   -0.133529
C      0.406234   -0.146846    0.427337
C      1.583446   -0.362853    0.279772
C      3.011317   -0.624865    0.100145
H     -1.827917    3.533838   -0.656453
H     -1.264604    0.070148    1.691495
H     -1.637188   -0.912103   -1.223986
H     -1.625740   -1.947984    0.257998
H     -2.939123   -0.741296    0.019202
H      3.240562   -0.697843   -0.982892
H      3.598530    0.203411    0.547344
H      3.278050   -1.578928    0.599607
21

C     -2.473269    1.071456    0.267852
C     -1.062652    0.763029    0.680754
C     -0.455595   -0.415347    0.421215
C     -1.162748   -1.514568   -0.334185
C      0.978417   -0.631833    0.855805
C      1.964302   -0.454554   -0.307523
C      2.044825    0.993788   -0.788277
H     -2.568961    1.018166   -0.836848
H     -3.176076    0.354030    0.740867
H     -2.741877    2.097366    0.595932
H     -0.517441    1.540316    1.209798
H     -2.068634   -1.835640    0.221414
H     -1.453710   -1.155528   -1.343615
H     -0.503222   -2.398980   -0.460115
H      1.253967    0.051134    1.689917
H      1.079223   -1.665014    1.252872
H      2.974378   -0.768459    0.033941
H      1.676318   -1.111485   -1.156870
H      2.827423    1.080847   -1.571072
H      2.309289    1.667543    0.054291
H      1.076045    1.313732   -1.226153
21

C     -1.765093   -1.412337   -1.062413
C     -1.768588    0.061876   -0.774171
C     -0.901194    0.668380    0.065993
C     -1.010187    2.158547    0.258832
C      0.206224   -0.082252    0.779258
C      1.488583   -0.082234   -0.060225
C      2.609127   -0.841159    0.644265
H     -2.550573   -1.645976   -1.811221
H     -1.985430   -1.983842   -0.136715
H     -0.783900   -1.724899   -1.475063
H     -2.523372    0.662065   -1.276524
H     -0.215753    2.537371    0.935871
H     -0.906118    2.673819   -0.719616
H     -1.997956    2.409097    0.700203
H     -0.101242   -1.123817    1.011173
H      0.410261    0.407176    1.756563
H      1.818966    0.964821   -0.236524
H      1.298135   -0.557777   -1.046106
H      3.524401   -0.820324    0.015943
H      2.839288   -0.368789    1.623019
H      2.314423   -1.899747    0.807457
21

C      2.531073    0.361224    0.618759
C      1.803624   -0.936274    0.281560
C      0.319967   -0.795759    0.512809
C     -0.560550   -0.349788   -0.412458
C     -0.131312   -0.006454   -1.819657
C     -2.020157   -0.219585   -0.034735
C     -2.251007    1.005645    0.845424
H      3.621790    0.227157    0.460000
H      2.357924    0.632828    1.682147
H      2.178714    1.190545   -0.028873
H      2.027602   -1.241680   -0.761884
H      2.189221   -1.738281    0.946833
H     -0.043840   -1.050612    1.505138
H      0.651832    0.778479   -1.803326
H     -0.981316    0.381341   -2.418779
H      0.260293   -0.912281   -2.327917
H     -2.354890   -1.133698    0.502697
H     -2.654087   -0.127007   -0.942491
H     -1.682710    0.916200    1.795558
H     -3.331387    1.091651    1.086853
H     -1.930783    1.926350    0.312343
23

C      2.377203    0.562338   -0.720588
C      1.594260   -0.605211   -0.118046
C      0.323810   -0.166680    0.654068
C     -0.297142   -1.393733    1.347836
C     -0.702228    0.626186   -0.221710
C     -1.275716   -0.184586   -1.396086
C     -1.846520    1.212442    0.620993
H      2.537105    1.358689    0.036954
H      3.368460    0.201569   -1.067627
H      1.843829    0.981705   -1.598584
H      2.275193   -1.129626    0.588234
H      1.340706   -1.332479   -0.917895
H      0.663324    0.516298    1.465249
H     -1.158803   -1.103359    1.981982
H      0.451254   -1.869692    2.016998
H     -0.624556   -2.151278    0.605969
H     -0.176155    1.503386   -0.654526
H     -1.955897    0.455025   -1.998298
H     -0.468048   -0.531064   -2.071823
H     -1.855777   -1.059410   -1.036434
H     -2.428204    1.939424    0.014485
H     -2.543128    0.419191    0.964087
H     -1.442968    1.750865    1.504763
21

C      2.410061    0.447831   -0.571150
C      1.543980   -0.561202   -0.722800
C      0.293002   -0.704548    0.121831
C      0.685354   -0.901437    1.596644
C     -0.691236    0.487714   -0.086368
C     -1.972885    0.325561    0.749145
C     -1.075611    0.640503   -1.568947
H      2.252163    1.217928    0.176825
H      3.290244    0.505572   -1.202998
H      1.743941   -1.309148   -1.484608
H     -0.218491   -1.636681   -0.207480
H      1.039842    0.051994    2.043072
H      1.493509   -1.659555    1.683272
H     -0.178446   -1.277061    2.183533
H     -0.197742    1.431030    0.236293
H     -1.747581    0.403963    1.832790
H     -2.697177    1.133706    0.510733
H     -2.453316   -0.655202    0.544286
H     -1.546607   -0.291736   -1.948324
H     -1.790620    1.480893   -1.699005
H     -0.182385    0.869875   -2.186742
19

C      2.434323    1.624388   -0.818738
C      1.607315    0.761643   -0.658112
C      0.596211   -0.294369   -0.462690
C      1.291843   -1.520602    0.146628
C     -0.579908    0.226412    0.415712
C     -1.625648   -0.869335    0.686489
C     -1.277676    1.430957   -0.242750
H      3.159825    2.381758   -0.959504
H      0.206340   -0.580227   -1.464272
H      1.591192   -1.320846    1.198241
H      0.622048   -2.404896    0.118048
H      2.199578   -1.783383   -0.439337
H     -0.177077    0.561195    1.398262
H     -2.503159   -0.446515    1.221044
H     -1.203975   -1.662268    1.338169
H     -1.973456   -1.323004   -0.266371
H     -1.672887    1.154009   -1.243750
H     -2.120777    1.783097    0.389411
H     -0.574111    2.281984   -0.356482
21

C      1.141471    0.196915    1.595982
C      0.978362    0.186381    0.261914
C      1.928079    0.989083   -0.588786
C     -0.144970   -0.611138   -0.391497
C      0.015842   -2.110539   -0.107129
C     -1.541337   -0.117853    0.045935
C     -1.802420    1.328771   -0.374744
H      1.942862    0.770362    2.052610
H      0.481308   -0.362987    2.249873
H      1.684662    0.904048   -1.668055
H      1.871484    2.061134   -0.304115
H      2.966625    0.626388   -0.436221
H     -0.084085   -0.495283   -1.496176
H     -0.735029   -2.690586   -0.685098
H      1.027389   -2.451240   -0.415914
H     -0.124523   -2.331132    0.972291
H     -1.661169   -0.205831    1.147251
H     -2.318841   -0.757656   -0.426289
H     -1.687595    1.438524   -1.474083
H     -2.838635    1.614428   -0.096286
H     -1.099481    2.018208    0.138535
19

C      2.091788    0.963738    0.839154
C      1.549610   -0.169688    0.383421
C      0.439003   -0.154077   -0.640858
C      0.185902   -1.560929   -1.193088
C     -0.838414    0.416465   -0.045245
C     -1.470512    1.434007   -0.650162
C     -1.434558   -0.168637    1.210502
H      2.890468    0.927562    1.572799
H      1.743816    1.929927    0.486175
H      1.928299   -1.116745    0.759006
H      0.780699    0.471708   -1.496675
H      1.107128   -1.950631   -1.676997
H     -0.620419   -1.530229   -1.956970
H     -0.113671   -2.261516   -0.384537
H     -2.389464    1.840451   -0.237847
H     -1.082071    1.874837   -1.563080
H     -1.500609    0.614735    1.994900
H     -2.452147   -0.559110    0.997492
H     -0.814850   -1.001868    1.602010
17

C      1.876134    1.595976    1.430908
C      1.370720    0.890600    0.593720
C      0.753973    0.030399   -0.427948
C      1.139656   -1.432564   -0.196948
C     -0.754832    0.201715   -0.422140
C     -1.401896    0.527451   -1.552032
C     -1.557114   -0.027674    0.835016
H      2.319385    2.214923    2.165921
H      1.175062    0.338670   -1.410421
H      0.807011   -1.783353    0.803484
H      0.673296   -2.074699   -0.974534
H      2.242503   -1.551537   -0.265433
H     -0.865600    0.685734   -2.482652
H     -2.482268    0.639160   -1.560656
H     -0.902055   -0.289369    1.691731
H     -2.118663    0.894341    1.095623
H     -2.275313   -0.859774    0.676360
21

C      0.471677   -0.556811    1.568262
C      0.262615    0.172439    0.456872
C      1.311689    1.171456    0.020636
C      2.497739    0.468567   -0.633202
C     -1.012538    0.012289   -0.359488
C     -1.142550   -1.410611   -0.917138
C     -2.250281    0.401054    0.458095
H      1.380821   -0.436037    2.149728
H     -0.258866   -1.280316    1.914315
H      1.662498    1.759250    0.896937
H      0.884786    1.895778   -0.705450
H      2.988615   -0.219207    0.087729
H      3.241422    1.223913   -0.963749
H      2.159487   -0.109815   -1.519503
H     -0.973610    0.696753   -1.235131
H     -1.272525   -2.151946   -0.100502
H     -2.021461   -1.474542   -1.593643
H     -0.235138   -1.674436   -1.501545
H     -3.155363    0.371820   -0.185497
H     -2.401831   -0.293721    1.311245
H     -2.137187    1.434124    0.851029
19

C      2.379269    0.891788   -0.588092
C      1.809094   -0.308379   -0.694058
C      0.470130   -0.632586   -0.141256
C      0.225775   -1.903620    0.205186
C     -0.591837    0.444095    0.053287
C     -1.937175    0.053557   -0.577532
C     -0.758463    0.780968    1.538833
H      3.368467    1.053164   -0.996486
H      1.902419    1.712971   -0.071269
H      2.383319   -1.099485   -1.162892
H     -0.718039   -2.199473    0.642568
H      0.978265   -2.672447    0.077043
H     -0.277677    1.372169   -0.469278
H     -2.629213    0.922610   -0.558614
H     -2.418823   -0.781739   -0.027381
H     -1.789225   -0.247522   -1.636727
H      0.214935    1.100565    1.968508
H     -1.128188   -0.100576    2.105051
H     -1.483034    1.613940    1.662719
17

C      2.622422    0.466576    0.977407
C      1.705236   -0.047964    0.388044
C      0.604027   -0.662290   -0.317139
C      0.831167   -1.763658   -1.036821
C     -0.783610   -0.057706   -0.234501
C     -0.792548    1.362743   -0.811220
C     -1.292931   -0.062210    1.211505
H      3.427269    0.918524    1.494886
H      1.823292   -2.195674   -1.095733
H      0.032195   -2.253154   -1.579299
H     -1.498691   -0.662171   -0.837227
H     -0.428548    1.349547   -1.860913
H     -1.826465    1.769297   -0.807684
H     -0.143205    2.038491   -0.213979
H     -0.656117    0.577859    1.859390
H     -2.335457    0.319830    1.249839
H     -1.288038   -1.098041    1.613446
21

C      2.550291   -0.455707    0.619277
C      1.059428   -0.578934    0.480940
C      0.291342    0.338386   -0.153406
C      0.916035    1.568886   -0.772223
C     -1.217616    0.144104   -0.253489
C     -1.872580    0.128007    1.133556
C     -1.567066   -1.122644   -1.044922
H      2.808112    0.466276    1.181177
H      3.027436   -0.431553   -0.382725
H      2.946509   -1.330074    1.176813
H      0.596810   -1.457381    0.920371
H      1.430229    2.166505    0.009414
H      1.649048    1.270747   -1.550880
H      0.157262    2.220363   -1.252645
H     -1.664351    0.998774   -0.806801
H     -1.603667    1.050297    1.691668
H     -1.548025   -0.755964    1.722147
H     -2.978316    0.094819    1.030898
H     -2.665868   -1.184222   -1.197025
H     -1.235109   -2.036904   -0.509091
H     -1.079905   -1.093780   -2.043052
21

C      2.522578   -0.357993    0.395818
C      1.606920    0.747819   -0.043981
C      0.263819    0.629351   -0.160936
C     -0.503414    1.848162   -0.618131
C     -0.480842   -0.669795    0.148509
C     -1.466762   -0.476335    1.306769
C     -1.192867   -1.206348   -1.098953
H      2.456369   -1.213071   -0.309455
H      2.259142   -0.687366    1.422983
H      3.570644    0.007911    0.404101
H      2.073413    1.701432   -0.280246
H     -0.344108    2.682090    0.097957
H     -0.148164    2.159779   -1.623262
H     -1.592687    1.655572   -0.683692
H      0.222134   -1.465171    0.469900
H     -0.933735   -0.077299    2.196209
H     -1.921734   -1.451153    1.584546
H     -2.283072    0.224266    1.032948
H     -2.002643   -0.523165   -1.430171
H     -1.640877   -2.199715   -0.882295
H     -0.464117   -1.328970   -1.928616
21

C      2.358495   -0.001533   -0.240359
C      1.060835    0.770103   -0.488342
C     -0.213725   -0.062103   -0.195538
C     -0.329595   -1.338492   -1.051625
C     -1.490163    0.791529   -0.249083
C     -1.731373    0.527075    1.231528
C     -0.462739   -0.313610    1.298879
H      2.476123   -0.818288   -0.982409
H      3.222644    0.687187   -0.349141
H      2.375720   -0.427714    0.784369
H      1.070909    1.681979    0.149261
H      1.042903    1.106980   -1.547629
H     -0.247117   -1.083350   -2.129360
H     -1.304808   -1.844584   -0.882678
H      0.472405   -2.058305   -0.786690
H     -2.298319    0.367524   -0.885575
H     -1.307875    1.870046   -0.453242
H     -2.649930   -0.072747    1.413172
H     -1.664518    1.451154    1.846500
H      0.297675    0.143497    1.969580
H     -0.677545   -1.376349    1.548382
19

C      2.262982    0.953658   -0.341321
C      1.389360   -0.006992   -0.660621
C      0.099794   -0.204416    0.112640
C      0.344273   -0.676794    1.556232
C     -0.924241   -1.073374   -0.631901
C     -1.874602    0.114917   -0.712170
C     -0.860417    0.988844    0.015064
H      3.179422    1.065588   -0.911437
H      2.070056    1.634414    0.482042
H      1.624765   -0.663909   -1.493055
H     -0.616837   -0.840341    2.090261
H      0.927593    0.083478    2.117295
H      0.911716   -1.631722    1.551004
H     -1.345476   -1.902795   -0.021420
H     -0.598473   -1.407396   -1.641763
H     -2.803378   -0.041574   -0.121008
H     -2.053962    0.448737   -1.757645
H     -1.241587    1.343244    0.998385
H     -0.490989    1.816436   -0.630583
17

C      2.578654    0.034119   -1.229161
C      1.517852    0.137638   -0.665474
C      0.219467    0.264484    0.024526
C      0.080759    1.607394    0.754521
C     -0.109812   -0.949370    0.899063
C     -1.294964   -1.274327   -0.003388
C     -0.969891   -0.070630   -0.880907
H      3.509644   -0.056844   -1.723922
H      0.882751    1.710897    1.516433
H     -0.903051    1.681693    1.266561
H      0.164237    2.445027    0.029389
H     -0.431477   -0.687574    1.931530
H      0.662719   -1.750635    0.876098
H     -1.170182   -2.240038   -0.540438
H     -2.270612   -1.169485    0.519801
H     -0.685324   -0.373340   -1.913742
H     -1.780769    0.690991   -0.860890
21

C      2.909533    0.092057   -0.354349
C      1.515333    0.158152    0.262400
C      0.427905    0.036095   -0.812003
C     -0.981024    0.034468   -0.189676
C     -1.487730    1.300794    0.511826
C     -2.037163   -0.764932   -0.945968
C     -1.476071   -1.292278    0.371300
H      3.058781   -0.881270   -0.868553
H      3.047852    0.918041   -1.084232
H      3.674441    0.191892    0.444368
H      1.408756   -0.666929    0.999876
H      1.411232    1.126023    0.797907
H      0.504125    0.892868   -1.515999
H      0.600790   -0.895300   -1.396242
H     -1.384476    2.169811   -0.170920
H     -0.889102    1.488042    1.426863
H     -2.554331    1.212628    0.811068
H     -1.687098   -1.336135   -1.832156
H     -3.084936   -0.404828   -0.863795
H     -2.188579   -1.222912    1.220932
H     -0.788238   -2.156286    0.249542
21

C      2.369541   -0.285867    0.004225
C      0.967787   -0.589813   -0.519481
C     -0.073426    0.431130   -0.004413
C      0.172506    1.921468   -0.281563
C     -0.711898    0.112540    1.346513
C     -1.551751    0.020463    0.069548
C     -1.940450   -1.396544   -0.368719
H      2.740725    0.676018   -0.407352
H      3.066563   -1.090111   -0.312764
H      2.364330   -0.237070    1.113966
H      0.717168   -1.626682   -0.214778
H      0.980996   -0.559469   -1.629845
H     -0.695935    2.551031    0.008586
H      1.053693    2.271641    0.294778
H      0.366444    2.069796   -1.364313
H     -0.950020    0.994854    1.978206
H     -0.402720   -0.852648    1.801721
H     -2.298989    0.833593   -0.055451
H     -3.037821   -1.516760   -0.256267
H     -1.683567   -1.538391   -1.439229
H     -1.453177   -2.189180    0.236633
21

C      2.272994   -0.035693    0.787321
C      1.560146   -0.119232   -0.559446
C      0.059095    0.195190   -0.418173
C     -0.342841    1.623242   -0.008739
C     -0.852248   -0.481648   -1.444981
C     -0.828095   -0.983352    0.000091
C     -2.079847   -0.680649    0.830928
H      2.216255    0.995902    1.194242
H      3.342621   -0.304400    0.658621
H      1.813225   -0.742062    1.510894
H      1.721571   -1.136581   -0.979540
H      2.020095    0.608515   -1.261773
H     -1.388592    1.871662   -0.283863
H      0.318573    2.355932   -0.516565
H     -0.224730    1.741877    1.088421
H     -1.763067    0.081450   -1.740697
H     -0.351311   -1.168775   -2.159657
H     -0.309940   -1.954776    0.152300
H     -2.719440    0.110014    0.387120
H     -2.688582   -1.604905    0.910886
H     -1.775882   -0.371710    1.852611
21

C      1.616420    1.017941   -0.723187
C      0.823924   -0.271256   -0.451672
C      1.524842   -1.104538    0.630972
C     -0.686461   -0.071063   -0.111719
C     -1.632870   -1.242182   -0.412783
C     -1.006244    0.692322    1.172500
C     -1.327818    1.318818   -0.179252
H      1.628778    1.678549    0.168887
H      2.667274    0.770210   -0.985524
H      1.181423    1.562013   -1.587932
H      0.868038   -0.862767   -1.392825
H      2.564625   -1.341012    0.319011
H      1.562778   -0.552538    1.593647
H      0.992696   -2.065534    0.789482
H     -2.687341   -1.008821   -0.150402
H     -1.323856   -2.136953    0.165461
H     -1.589525   -1.483019   -1.495396
H     -0.155117    1.183215    1.688842
H     -1.907662    0.360258    1.731008
H     -2.419375    1.352361   -0.383364
H     -0.694529    2.203995   -0.385752
21

C     -0.670821    1.414821    0.444800
C     -0.553820   -0.095786    0.125327
C     -1.357925   -0.400292   -1.153998
C     -1.178806   -0.880065    1.295149
C      0.904589   -0.625360   -0.065885
C      1.771682    0.076401   -1.105699
C      2.099502    0.217816    0.373262
H     -1.739568    1.709211    0.528094
H     -0.219230    2.041067   -0.350840
H     -0.190592    1.655542    1.416869
H     -2.428006   -0.129312   -1.022324
H     -1.302111   -1.481927   -1.404809
H     -0.960257    0.177637   -2.015302
H     -2.231926   -0.567017    1.465603
H     -0.605517   -0.702608    2.230939
H     -1.173481   -1.972293    1.087171
H      1.070244   -1.724934   -0.046982
H      2.468433   -0.592691   -1.653746
H      1.366914    0.998526   -1.569018
H      2.994095   -0.366492    0.675503
H      1.936602    1.247755    0.745886
21

C      2.472765   -0.063642    0.588045
C      1.117409   -0.614922    0.134839
C      0.759836   -0.204798   -1.296351
C     -0.750292    0.040057   -1.317295
C     -1.257656   -0.229845    0.101894
C     -2.381188    0.723337    0.520720
C     -0.032477   -0.114779    0.999773
H      2.483153    1.046855    0.547186
H      3.277467   -0.454445   -0.070245
H      2.682061   -0.386304    1.630055
H      1.146526   -1.726962    0.192354
H      1.288576    0.728697   -1.592831
H      1.039592   -1.009497   -2.011042
H     -1.250518   -0.638163   -2.042815
H     -0.948830    1.091479   -1.623843
H     -1.638116   -1.275481    0.153720
H     -2.039132    1.780060    0.484469
H     -2.709775    0.487878    1.555269
H     -3.250037    0.603871   -0.160784
H      0.135795    0.947789    1.288530
H     -0.145158   -0.731183    1.918350
21

C      2.527186   -0.199478    0.377327
C      1.144563    0.429291    0.177134
C      0.695739    0.384293   -1.281379
C     -0.818400    0.331834   -1.222204
C     -1.134592   -0.487556    0.026537
C     -2.476735   -0.095037    0.652364
C      0.048178   -0.281289    0.983318
H      3.281652    0.344974   -0.229424
H      2.523182   -1.268087    0.072186
H      2.820479   -0.132605    1.446531
H      1.190517    1.495005    0.497706
H      1.047100    1.277241   -1.842829
H      1.070574   -0.535321   -1.784697
H     -1.242028   -0.139177   -2.135837
H     -1.213289    1.368536   -1.128223
H     -1.178945   -1.562757   -0.260867
H     -2.472674    0.973395    0.958125
H     -2.673838   -0.723563    1.546676
H     -3.296776   -0.256643   -0.079213
H     -0.231535    0.345416    1.859441
H      0.389640   -1.268473    1.367328
19

C      2.486599    0.266611    0.992972
C      1.318167    0.115747    0.361222
C      1.176929   -0.580694   -0.946259
C     -0.330527   -0.667323   -1.161003
C     -0.955604    0.409459   -0.260770
C     -2.356674    0.026001    0.224245
C      0.025806    0.624569    0.894478
H      3.402204   -0.124340    0.560130
H      2.535246    0.782045    1.947171
H      1.629614   -1.595544   -0.909881
H      1.654850    0.024152   -1.747084
H     -0.593664   -0.500500   -2.228187
H     -0.680286   -1.680193   -0.859338
H     -1.028178    1.355021   -0.844985
H     -2.327149   -0.915301    0.814136
H     -2.770107    0.836263    0.861621
H     -3.031423   -0.116787   -0.646383
H      0.097977    1.703963    1.151510
H     -0.253780    0.036850    1.796406
17

C      1.424734   -0.821342   -1.892198
C      0.683720   -0.456870   -0.840956
C      0.522177   -1.305717    0.381344
C     -0.394788   -0.505280    1.308367
C     -0.704698    0.755109    0.562691
C     -1.488038    1.721281    1.052528
C     -0.058468    0.831212   -0.775543
H      1.512250   -0.171599   -2.757522
H      1.948829   -1.772042   -1.894398
H      0.056548   -2.278863    0.112855
H      1.510297   -1.479177    0.860343
H      0.122591   -0.267819    2.263271
H     -1.331159   -1.067506    1.515783
H     -1.938210    1.621041    2.035284
H     -1.684392    2.618824    0.474192
H      0.642010    1.692424   -0.826278
H     -0.823401    0.886324   -1.579764
19

C      1.920895    0.895713    0.479927
C      1.279361   -0.380163   -0.071594
C      0.697510   -0.131387   -1.420487
C     -0.616841   -0.271663   -1.437800
C     -1.168024   -0.641367   -0.103833
C     -2.078485    0.468867    0.427245
C      0.079826   -0.843697    0.775877
H      2.333989    0.702689    1.492689
H      2.753409    1.218916   -0.180923
H      1.174018    1.716495    0.545998
H      2.044430   -1.184540   -0.137760
H      1.278466    0.151075   -2.292736
H     -1.221400   -0.115727   -2.325666
H     -1.744140   -1.588886   -0.187668
H     -2.467782    0.190202    1.429435
H     -2.942951    0.610957   -0.255961
H     -1.523603    1.428582    0.510468
H      0.192269   -1.925888    1.007857
H      0.009052   -0.300178    1.744932
19

C      2.428632    0.169250    0.276484
C      1.091338   -0.575689    0.275156
C      0.612450   -0.791509   -1.119048
C     -0.537869   -0.186799   -1.358824
C     -1.044684    0.561935   -0.175168
C     -2.469429    0.129228    0.178495
C     -0.033939    0.238700    0.941401
H      3.201950   -0.436754   -0.242196
H      2.334148    1.149998   -0.238546
H      2.762904    0.341855    1.321527
H      1.211442   -1.558913    0.780819
H      1.147340   -1.371521   -1.864474
H     -1.032777   -0.209739   -2.324645
H     -1.030307    1.650605   -0.402200
H     -2.814025    0.672238    1.084037
H     -2.512600   -0.964163    0.374781
H     -3.158434    0.371254   -0.658696
H     -0.497830   -0.369703    1.749735
H      0.341690    1.179728    1.401361
17

C      2.583951   -0.171598    0.455125
C      1.331732    0.038633    0.058458
C      0.815006    1.308495   -0.405448
C     -0.458056    1.176403   -0.723580
C     -0.960006   -0.222501   -0.515371
C     -2.138032   -0.236809    0.461261
C      0.261659   -0.996576    0.026684
H      2.895367   -1.153040    0.789152
H      3.306942    0.634300    0.449317
H      1.375778    2.230946   -0.486200
H     -1.062274    1.989167   -1.105723
H     -1.280817   -0.645805   -1.492473
H     -2.478348   -1.281168    0.625935
H     -1.845227    0.205757    1.438107
H     -2.985758    0.346090    0.042048
H      0.093576   -1.403233    1.048357
H      0.544507   -1.819060   -0.665649
19

C      2.656193   -0.043262   -0.365285
C      1.212304    0.086058    0.012800
C      0.717482    1.131411    0.657660
C     -0.750840    1.022631    0.859329
C     -1.095774   -0.396126    0.371467
C     -2.323929   -0.415270   -0.544281
C      0.168887   -0.916955   -0.333737
H      2.952566    0.807625   -1.014088
H      3.284711   -0.043732    0.549910
H      2.826403   -0.991226   -0.917698
H      1.310435    1.986110    0.968641
H     -1.001080    1.146964    1.934741
H     -1.258304    1.811437    0.262276
H     -1.303477   -1.039069    1.256683
H     -2.155314    0.217238   -1.442395
H     -3.210211   -0.031926    0.004591
H     -2.534935   -1.455591   -0.871275
H      0.051871   -0.955562   -1.438986
H      0.453012   -1.920756    0.049649
19

C      2.501118    0.693227   -0.111563
C      1.094958    0.177911   -0.149763
C      0.035143    0.959441   -0.284390
C     -1.239130    0.187814   -0.273306
C     -2.117196    0.614091    0.905791
C     -0.791887   -1.283114   -0.168969
C      0.733033   -1.259177   -0.019466
H      2.619321    1.399482    0.736961
H      3.215770   -0.146438    0.018849
H      2.734234    1.218185   -1.061693
H      0.090965    2.039360   -0.385989
H     -1.784485    0.360991   -1.226897
H     -3.052715    0.015462    0.914876
H     -2.389531    1.686796    0.808687
H     -1.583436    0.463784    1.869415
H     -1.070482   -1.827524   -1.098047
H     -1.256952   -1.808802    0.694437
H      1.222629   -1.855166   -0.819641
H      1.038643   -1.636324    0.980318
17

C      2.518920    0.709852    0.421855
C      1.305670    0.245967    0.135004
C      0.065780    0.846479    0.578874
C     -0.949367    0.137391    0.118734
C     -2.380323    0.476386    0.388167
C     -0.507422   -1.038420   -0.699120
C      1.027343   -0.964163   -0.687798
H      2.640374    1.598543    1.028242
H      3.400877    0.203107    0.051536
H     -0.024369    1.735567    1.190994
H     -3.049412   -0.262253   -0.101172
H     -2.608681    1.486768   -0.011522
H     -2.570134    0.462393    1.482033
H     -0.861846   -1.982999   -0.233000
H     -0.900610   -0.952783   -1.735067
H      1.427167   -0.834457   -1.716886
H      1.466032   -1.867378   -0.210874
17

C      2.525346    0.113430   -0.375978
C      1.108724    0.115725    0.098128
C      0.250848   -0.880266   -0.064442
C     -1.094940   -0.489725    0.462286
C     -2.157322   -0.532603   -0.634493
C     -0.835342    0.913808    0.918023
C      0.426596    1.247066    0.700681
H      2.976290   -0.891712   -0.234897
H      3.119714    0.853784    0.199488
H      2.555868    0.380909   -1.452714
H      0.491882   -1.832745   -0.519699
H     -1.381750   -1.134126    1.320841
H     -1.867871    0.112432   -1.492751
H     -3.130047   -0.179277   -0.231051
H     -2.284686   -1.575384   -0.995322
H     -1.569274    1.571216    1.365790
H      0.865965    2.207467    0.936110
21

C      2.682562   -0.419584    0.147628
C      1.405995   -0.612698   -0.666318
C      0.497034    0.626223   -0.584780
C     -0.825963    0.455052   -1.332935
C     -1.587728    0.599739   -0.016008
C     -2.371014   -0.654953    0.380846
C     -0.266666    0.760297    0.735044
H      2.441360   -0.273484    1.221616
H      3.325352   -1.319536    0.048849
H      3.246790    0.462154   -0.224072
H      0.871415   -1.517941   -0.302780
H      1.686129   -0.783304   -1.728252
H      1.017536    1.566857   -0.874270
H     -0.946638   -0.539934   -1.817816
H     -1.026585    1.301246   -2.025861
H     -2.210147    1.521529    0.016397
H     -1.728441   -1.561040    0.340490
H     -2.762101   -0.537766    1.413270
H     -3.228641   -0.791827   -0.310763
H     -0.158332    1.774395    1.177807
H     -0.061917   -0.055425    1.464097
21

C      2.866106   -0.064623   -0.199162
C      1.628369    0.648678   -0.736411
C      0.409591    0.416543    0.173496
C     -0.873971    1.054907   -0.359465
C     -1.506683   -0.330127   -0.489036
C     -2.717244   -0.540421    0.424818
C     -0.223058   -0.970562    0.037270
H      3.108390    0.300333    0.821670
H      2.699094   -1.161909   -0.165438
H      3.731088    0.141241   -0.864206
H      1.420013    0.295597   -1.770617
H      1.839978    1.738832   -0.782126
H      0.599530    0.695293    1.234509
H     -1.363487    1.706905    0.397697
H     -0.754449    1.552168   -1.347638
H     -1.715212   -0.604303   -1.547119
H     -3.022197   -1.607614    0.397911
H     -2.482947   -0.259520    1.474561
H     -3.565115    0.080784    0.067271
H     -0.339105   -1.475431    1.021854
H      0.261309   -1.616770   -0.727650
19

C      3.148469    0.174616   -0.199601
C      1.918118   -0.266909   -0.471496
C      0.708636    0.276641    0.249132
C     -0.407752    0.709348   -0.701065
C     -1.309862   -0.387419   -0.135954
C     -2.552783    0.147631    0.580824
C     -0.193198   -0.820995    0.813327
H      3.317057    0.940877    0.550868
H      4.000955   -0.233480   -0.732763
H      1.788954   -1.035071   -1.229459
H      0.941979    1.059028    1.006701
H     -0.762920    1.741670   -0.486062
H     -0.176582    0.546433   -1.777453
H     -1.552515   -1.168278   -0.890653
H     -3.069963   -0.686231    1.100269
H     -3.248905    0.589756   -0.162517
H     -2.283256    0.925110    1.328241
H      0.159987   -1.854226    0.598181
H     -0.426418   -0.658501    1.889090
19

C      2.869306   -0.016219   -0.850820
C      1.541018    0.075866   -0.752191
C      0.826525   -0.196875    0.548958
C     -0.153002    0.911702    0.933809
C     -1.316803   -0.067634    0.783329
C     -2.293233    0.307640   -0.335141
C     -0.337773   -1.175242    0.394895
H      3.478277   -0.291078    0.004974
H      3.357708    0.185303   -1.798650
H      0.965096    0.353761   -1.630995
H      1.501226   -0.473965    1.390656
H     -0.018394    1.239162    1.987913
H     -0.181776    1.763330    0.216775
H     -1.829439   -0.271767    1.749614
H     -3.012979   -0.522581   -0.494171
H     -1.756997    0.506289   -1.288363
H     -2.858857    1.217785   -0.044786
H     -0.303949   -1.986112    1.155049
H     -0.475956   -1.559366   -0.641246
17

C      3.404271   -0.086884    0.224732
C      2.249405   -0.374961    0.032997
C      0.838961   -0.727444   -0.201409
C     -0.060013   -0.422990    0.995854
C     -0.810074    0.616995    0.163418
C     -2.282246    0.268697   -0.074123
C      0.092737    0.314840   -1.032720
H      4.417898    0.166245    0.393123
H      0.712274   -1.762498   -0.587421
H      0.470915    0.038234    1.858860
H     -0.679294   -1.300482    1.286545
H     -0.670885    1.651107    0.550026
H     -2.716805    0.975157   -0.812163
H     -2.393716   -0.768000   -0.459569
H     -2.844152    0.360041    0.879048
H      0.710384    1.194947   -1.321380
H     -0.439660   -0.143004   -1.895817
17

C      2.770277    1.093000    0.722609
C      1.993049    0.270293    0.307328
C      1.043225   -0.734336   -0.199863
C     -0.121448   -0.987985    0.755943
C     -1.091815   -0.423373   -0.281747
C     -1.801438    0.854622    0.174845
C      0.074484   -0.167375   -1.236425
H      3.452204    1.815423    1.087209
H      1.543358   -1.668936   -0.535620
H     -0.075231   -0.398736    1.700229
H     -0.286133   -2.073559    0.931586
H     -1.797942   -1.191876   -0.667720
H     -1.074379    1.604674    0.555256
H     -2.359097    1.295131   -0.678132
H     -2.522442    0.610908    0.983153
H      0.016372   -0.806634   -2.144395
H      0.236953    0.908760   -1.474256
21

C      1.366143    0.750860    1.446000
C      1.048892    0.455673   -0.027853
C      2.341792    0.119462   -0.781962
C      0.032071   -0.696269   -0.175108
C     -1.355774   -0.308066    0.363075
C     -2.527417   -1.013533   -0.304461
C     -2.248536    0.450807   -0.606978
H      1.749432   -0.159385    1.955239
H      0.460520    1.108652    1.977635
H      2.133473    1.550821    1.520509
H      0.620111    1.374869   -0.485623
H      2.809763   -0.799177   -0.366799
H      3.064687    0.959179   -0.700394
H      2.127370   -0.042402   -1.859949
H      0.389875   -1.589151    0.381957
H     -0.034222   -0.986082   -1.248076
H     -1.506836   -0.091966    1.441811
H     -2.282755   -1.699980   -1.143140
H     -3.407362   -1.173273    0.353915
H     -2.955566    1.156063   -0.121530
H     -1.825661    0.632897   -1.618267
19

C     -1.755740    0.947995    0.534363
C     -1.303923   -0.250865    0.137197
C     -2.232454   -1.184806   -0.592161
C      0.117898   -0.662430    0.436243
C      1.093127    0.091788   -0.476824
C      1.759447    1.321731    0.122263
C      2.546579    0.030032   -0.032387
H     -1.111442    1.637423    1.071112
H     -2.777821    1.252740    0.329419
H     -1.720571   -2.128503   -0.873913
H     -3.099379   -1.434425    0.055501
H     -2.599835   -0.698832   -1.520796
H      0.333922   -0.491718    1.514669
H      0.249851   -1.749680    0.252465
H      0.947335    0.091680   -1.578545
H      1.494511    1.564268    1.173490
H      2.027733    2.104205   -0.618452
H      3.284931    0.051905   -0.861647
H      2.745831   -0.492510    0.928002
19

C     -1.526478   -0.945437   -0.684331
C     -1.160979    0.222208    0.200658
C     -2.194251    0.819339    1.119801
C      0.079609    0.750476    0.187193
C      1.175448    0.234750   -0.708566
C      2.581987    0.402881   -0.154891
C      1.925143   -0.967052   -0.155396
H     -2.587948   -1.240892   -0.551846
H     -0.891892   -1.821764   -0.435542
H     -1.375376   -0.673340   -1.750208
H     -3.168856    0.294840    1.037040
H     -2.351318    1.888589    0.863702
H     -1.847495    0.745181    2.172339
H      0.299931    1.604018    0.824011
H      1.077144    0.283559   -1.813908
H      2.665724    0.856564    0.856298
H      3.371205    0.520840   -0.927125
H      2.319410   -1.657616   -0.930445
H      1.608992   -1.317145    0.851214
21

C      2.432267   -0.144150    0.082178
C      0.976024    0.205681   -0.241667
C      0.222559   -1.036821   -0.755346
C     -1.245069   -0.706022   -1.054873
C     -1.940594   -0.120426    0.179804
C     -1.196120    1.117255    0.694594
C      0.271620    0.790615    0.998112
H      2.941868   -0.535170   -0.824202
H      2.483233   -0.913470    0.882537
H      2.976720    0.762874    0.421284
H      0.981596    0.976499   -1.045162
H      0.267992   -1.851111    0.001865
H      0.703530   -1.407294   -1.686801
H     -1.300603    0.020730   -1.895107
H     -1.773289   -1.632136   -1.368240
H     -2.982118    0.161962   -0.085357
H     -1.987593   -0.889198    0.982326
H     -1.249388    1.928278   -0.064780
H     -1.689664    1.482887    1.620678
H      0.319471    0.066376    1.841729
H      0.787558    1.722642    1.316426
19

C      1.263212   -1.084930   -1.835259
C      0.485377   -0.421928   -0.966775
C     -0.835892   -1.002120   -0.518297
C     -1.060674   -0.742185    0.976197
C     -0.858345    0.738691    1.324038
C      0.553401    1.200623    0.938659
C      0.821734    0.993109   -0.556847
H      0.992221   -2.076959   -2.183459
H      2.181894   -0.644990   -2.211127
H     -1.652291   -0.526835   -1.103917
H     -0.876548   -2.098759   -0.699343
H     -0.354714   -1.363103    1.570863
H     -2.094339   -1.045503    1.249126
H     -1.615074    1.357115    0.792935
H     -1.003870    0.880700    2.416523
H      1.304472    0.634006    1.532277
H      0.667063    2.278306    1.184904
H      0.193709    1.695132   -1.146848
H      1.888663    1.229631   -0.763651
19

C     -2.265285   -0.114000    0.115633
C     -0.783778   -0.218060   -0.261377
C     -0.224929    1.160687   -0.660205
C      1.275527    1.148446   -0.817694
C      2.058214    0.232123   -0.223196
C      1.500659   -0.979309    0.482584
C      0.037235   -0.794971    0.902774
H     -2.401609    0.547765    0.997975
H     -2.847297    0.298316   -0.736057
H     -2.669157   -1.120333    0.356928
H     -0.699582   -0.904290   -1.134423
H     -0.684280    1.482768   -1.619446
H     -0.481869    1.915101    0.115113
H      1.744189    1.975908   -1.341731
H      3.134510    0.304389   -0.346752
H      1.579812   -1.851116   -0.201971
H      2.115945   -1.192881    1.382380
H     -0.012340   -0.110227    1.778766
H     -0.375965   -1.780317    1.210699
17

C      2.280814   -0.514738    0.205596
C      0.988150   -0.190374    0.064968
C      0.601026    1.227936   -0.308372
C     -0.812349    1.542155    0.112556
C     -1.760673    0.595157    0.112578
C     -1.429842   -0.806661   -0.318263
C     -0.078488   -1.251644    0.258919
H      2.574749   -1.526597    0.468396
H      3.060525    0.226805    0.059396
H      0.690439    1.349305   -1.408646
H      1.281806    1.956691    0.183003
H     -1.061153    2.548979    0.434003
H     -2.763344    0.833051    0.454404
H     -2.230834   -1.501912    0.012001
H     -1.380213   -0.835048   -1.428554
H     -0.186626   -1.459354    1.345571
H      0.226012   -2.193752   -0.247556
19

C      2.349008   -0.308563   -0.183518
C      0.824955   -0.346802   -0.326257
C      0.189048   -1.081934    0.829429
C     -1.138375   -1.019826    0.988199
C     -1.962991   -0.237612    0.003342
C     -1.311874    1.126922   -0.297753
C      0.236751    1.079961   -0.424598
H      2.756077   -1.342223   -0.166543
H      2.642620    0.208548    0.755436
H      2.798781    0.228462   -1.045682
H      0.578746   -0.893929   -1.263497
H      0.794526   -1.613240    1.558634
H     -1.610236   -1.495807    1.842244
H     -2.990005   -0.091112    0.400829
H     -2.038307   -0.821790   -0.939481
H     -1.583342    1.834296    0.516606
H     -1.750230    1.530981   -1.236082
H      0.541345    1.533239   -1.393339
H      0.673501    1.710428    0.382034
17

C      2.450018    0.282607    0.024423
C      1.118267    0.197141    0.005082
C      0.295628    1.421803    0.127253
C     -1.038771    1.365521    0.068100
C     -1.764965    0.078557   -0.217263
C     -0.987946   -1.129768    0.319897
C      0.447577   -1.137471   -0.220868
H      3.064528   -0.601112   -0.095184
H      2.946582    1.235830    0.158490
H      0.772946    2.380064    0.296022
H     -1.612783    2.277713    0.172826
H     -1.898099   -0.023220   -1.315915
H     -2.770670    0.111006    0.253277
H     -1.503345   -2.066843    0.017902
H     -0.965568   -1.091311    1.431583
H      0.431400   -1.351832   -1.311487
H      1.015203   -1.948687    0.285861
17

C      1.644510   -0.248255    0.849440
C      0.876927   -0.184504   -0.475926
C     -0.115125   -1.323074   -0.550733
C     -1.375254   -1.167030   -0.128647
C     -1.857422    0.150361    0.326014
C     -1.115699    1.246744    0.139722
C      0.166868    1.178952   -0.648984
H      0.954602   -0.125674    1.712007
H      2.163867   -1.226115    0.942795
H      2.411095    0.554782    0.886354
H      1.611421   -0.304694   -1.302121
H      0.222650   -2.300378   -0.872491
H     -2.048036   -2.014760   -0.114001
H     -2.816291    0.225101    0.822470
H     -1.476840    2.205760    0.488972
H     -0.083936    1.318170   -1.722870
H      0.836664    2.014613   -0.352001
17

C      2.249860   -0.180047    0.175151
C      0.814013   -0.320605   -0.334999
C     -0.038237   -1.052794    0.681565
C     -1.354217   -0.810602    0.786458
C     -2.035119    0.198198   -0.103331
C     -1.082891    1.277344   -0.552479
C      0.233801    1.040639   -0.660890
H      2.685474   -1.182359    0.375740
H      2.274048    0.417638    1.112105
H      2.880985    0.322212   -0.589075
H      0.828026   -0.921756   -1.269599
H      0.407300   -1.822289    1.306007
H     -1.948931   -1.380493    1.493795
H     -2.882012    0.660531    0.446018
H     -2.436532   -0.323127   -0.997630
H     -1.477281    2.249020   -0.833706
H      0.881712    1.828489   -1.035130
19

C      2.479161    0.360430   -0.202265
C      0.994863    0.177653   -0.042484
C      0.256292    1.198259    0.443097
C     -1.229236    1.092522    0.685705
C     -1.879006   -0.024257   -0.136410
C     -1.064552   -1.311007   -0.010768
C      0.353576   -1.098265   -0.552488
H      2.684912    1.241176   -0.846986
H      2.946506    0.518407    0.792593
H      2.942442   -0.532958   -0.671909
H      0.753216    2.107259    0.771794
H     -1.395928    0.899322    1.767301
H     -1.710583    2.060851    0.431797
H     -2.913140   -0.200033    0.230580
H     -1.937730    0.280384   -1.204778
H     -1.015856   -1.621062    1.056562
H     -1.561143   -2.123622   -0.583587
H      0.317968   -1.053665   -1.662537
H      0.978236   -1.971393   -0.265216
17

C      2.320013    0.155990    0.142102
C      0.821472    0.180380    0.067436
C      0.197091    1.235029   -0.481795
C     -1.274896    1.278076   -0.569528
C     -2.003400    0.190419   -0.300337
C     -1.332526   -1.127862   -0.021273
C      0.008722   -0.927400    0.703665
H      2.745954    0.152082   -0.883381
H      2.685881    1.052519    0.686164
H      2.678585   -0.748221    0.677403
H      0.767949    2.070488   -0.868895
H     -1.765911    2.200821   -0.850627
H     -3.083350    0.237650   -0.361169
H     -2.001586   -1.765304    0.595142
H     -1.152338   -1.644607   -0.988636
H     -0.186607   -0.656587    1.763841
H      0.574946   -1.883475    0.689887
17

C      2.431634   -0.129925   -0.065037
C      0.936982   -0.020993   -0.126653
C      0.180807   -1.126326   -0.228546
C     -1.316236   -1.021984   -0.360130
C     -1.860762    0.163271    0.451920
C     -1.028963    1.398771    0.229920
C      0.287704    1.303474    0.013407
H      2.740175   -0.411036    0.963599
H      2.907129    0.837712   -0.331048
H      2.795742   -0.900019   -0.778453
H      0.643589   -2.104699   -0.282252
H     -1.568112   -0.877559   -1.432993
H     -1.790412   -1.965184   -0.014475
H     -2.914467    0.364236    0.163476
H     -1.836887   -0.090665    1.533684
H     -1.488674    2.374466    0.324588
H      0.880750    2.206460   -0.061006
21

C      1.795823    0.836912    0.847218
C      0.532473   -0.034459    0.821383
C      0.706687   -1.310918    0.001785
C     -0.689661   -1.689536   -0.491845
C     -1.624280   -0.537439   -0.122055
C     -0.727757    0.641706    0.258867
C     -0.465160    1.540644   -0.964107
H      2.139746    1.084208   -0.179335
H      2.613408    0.292519    1.365665
H      1.594954    1.777916    1.401775
H      0.311675   -0.331900    1.872541
H      1.146264   -2.122150    0.622403
H      1.370090   -1.130872   -0.873390
H     -0.677852   -1.833262   -1.594655
H     -1.032179   -2.633044   -0.013224
H     -2.321664   -0.298578   -0.955043
H     -2.232609   -0.830916    0.762364
H     -1.217873    1.255090    1.047550
H      0.134812    2.427390   -0.670985
H     -1.427352    1.913763   -1.375001
H      0.070456    0.982927   -1.761910
21

C      2.142218    0.232236    0.175355
C      0.741155   -0.051130   -0.380208
C      0.408241   -1.541631   -0.368198
C     -1.106129   -1.640680   -0.193832
C     -1.610997   -0.242387    0.157478
C     -0.370532    0.600858    0.445152
C     -0.583832    2.079269    0.097694
H      2.902543   -0.307426   -0.428280
H      2.224768   -0.097986    1.233134
H      2.362812    1.318696    0.120533
H      0.691072    0.310328   -1.433035
H      0.906292   -2.051280    0.487095
H      0.736152   -2.028304   -1.312709
H     -1.581585   -1.995407   -1.134637
H     -1.352804   -2.357054    0.620394
H     -2.175968    0.168086   -0.709496
H     -2.285196   -0.269440    1.041334
H     -0.133747    0.516328    1.530689
H     -1.434482    2.484960    0.685499
H     -0.803759    2.205713   -0.984158
H      0.323780    2.666253    0.350195
19

C     -0.816407    1.828827    1.040475
C     -0.518344    0.626894    0.532943
C     -1.547873   -0.400064    0.216467
C     -0.758298   -1.544375   -0.409772
C      0.702748   -1.342386   -0.001633
C      0.875917    0.154292    0.278474
C      1.495780    0.888865   -0.916239
H     -1.849025    2.109825    1.222725
H     -0.030406    2.538348    1.279295
H     -2.045984   -0.733863    1.152519
H     -2.300860   -0.001881   -0.497869
H     -0.840211   -1.488831   -1.517889
H     -1.138858   -2.531493   -0.068594
H      0.896901   -1.912661    0.933884
H      1.394804   -1.718271   -0.787127
H      1.509131    0.303194    1.181284
H      1.580171    1.974368   -0.696910
H      2.515815    0.496219   -1.113642
H      0.874999    0.752993   -1.828390
17

C      1.221618    1.805009    0.379663
C      0.367787    0.817324    0.099569
C     -0.991159    1.049072   -0.455345
C     -1.543386   -0.351747   -0.760859
C     -0.613106   -1.380052   -0.099229
C      0.589689   -0.608471    0.308594
C      1.685738   -1.177114    0.816849
H      2.201089    1.612512    0.793216
H      0.942565    2.834336    0.193107
H     -1.623329    1.557151    0.304967
H     -0.941400    1.665117   -1.379612
H     -1.552355   -0.514465   -1.861266
H     -2.582507   -0.457638   -0.380024
H     -0.341946   -2.186577   -0.814944
H     -1.097932   -1.818699    0.799875
H      1.734144   -2.251816    0.938751
H      2.544489   -0.593943    1.116687
19

C      1.409031   -0.970653    0.649623
C      0.704811   -0.267472   -0.524736
C      1.101307    1.221422   -0.580934
C     -0.141982    1.950706   -0.217330
C     -1.191778    1.151883   -0.139095
C     -0.849549   -0.262498   -0.458122
C     -1.499668   -1.228353    0.541651
H      1.132106   -0.500190    1.617176
H      2.510533   -0.896503    0.525549
H      1.148556   -2.049249    0.671413
H      1.029044   -0.770638   -1.463250
H      1.402207    1.505806   -1.612329
H      1.918273    1.485792    0.125400
H     -0.198172    3.025500   -0.079378
H     -2.197761    1.509490    0.057481
H     -1.252958   -0.488371   -1.470234
H     -1.210857   -2.273828    0.304931
H     -1.207434   -0.987495    1.585645
H     -2.605708   -1.155349    0.466541
19

C      2.098505   -0.203152   -0.235329
C      0.755858    0.172421    0.396621
C      0.451978    1.616740    0.191993
C     -0.761342    1.810227   -0.296476
C     -1.494315    0.535968   -0.516549
C     -0.436722   -0.553815   -0.268443
C     -0.974941   -1.699479    0.595422
H      2.109510    0.045305   -1.318793
H      2.921629    0.348460    0.266986
H      2.279957   -1.292006   -0.112994
H      0.795599   -0.024509    1.491199
H      1.120436    2.427303    0.464983
H     -1.185169    2.793748   -0.470876
H     -1.881815    0.489269   -1.556935
H     -2.340384    0.476504    0.202405
H     -0.134005   -0.974063   -1.255017
H     -0.180479   -2.460068    0.750163
H     -1.833827   -2.185669    0.085856
H     -1.310475   -1.323183    1.585782
17

C      1.948698   -0.779735   -0.618831
C      0.682532   -0.638643   -0.230073
C     -0.079181   -1.657564    0.461059
C     -1.319440   -1.243922    0.631177
C     -1.552262    0.121473    0.064567
C     -0.179651    0.554608   -0.496979
C      0.356544    1.807654    0.205124
H      2.493408   -1.690063   -0.402561
H      2.449347    0.012040   -1.160777
H      0.295682   -2.620863    0.782770
H     -2.083924   -1.837940    1.114491
H     -1.924159    0.799052    0.863799
H     -2.306686    0.062487   -0.749111
H     -0.250067    0.734703   -1.592617
H     -0.342999    2.655792    0.047382
H      0.467951    1.630316    1.296861
H      1.344206    2.090605   -0.216281
17

C     -0.856423    1.884312    0.299272
C     -0.573679    0.578539    0.233778
C     -1.607775   -0.487668    0.077325
C     -0.783485   -1.726510    0.161429
C      0.511776   -1.467797    0.324758
C      0.801845   -0.002495    0.372241
C      1.718324    0.408628   -0.781923
H     -1.881588    2.230342    0.212458
H     -0.066357    2.614189    0.443862
H     -2.344425   -0.454021    0.907934
H     -2.107568   -0.415116   -0.911750
H     -1.188710   -2.731140    0.100215
H      1.267673   -2.241814    0.411893
H      1.249581    0.270138    1.352333
H      2.694894   -0.113259   -0.692935
H      1.260572    0.150986   -1.761926
H      1.905343    1.502685   -0.748964
19

C      2.249465    0.045226   -0.143531
C      0.790388   -0.300909   -0.105516
C      0.336803   -1.484343    0.279097
C     -1.145014   -1.566445    0.212415
C     -1.570804   -0.253152   -0.451802
C     -0.310431    0.630435   -0.499152
C     -0.405607    1.811480    0.473391
H      2.395340    1.071397   -0.540612
H      2.673898   -0.008246    0.880925
H      2.787547   -0.669024   -0.801614
H      0.973818   -2.294306    0.621090
H     -1.560229   -1.642252    1.240287
H     -1.458053   -2.443831   -0.393074
H     -1.919048   -0.457956   -1.488314
H     -2.407777    0.218428    0.109369
H     -0.138577    1.006683   -1.531686
H      0.523289    2.418625    0.433805
H     -0.557369    1.452886    1.514683
H     -1.257641    2.465304    0.190238
17

C      0.313756    1.934345    0.715734
C     -0.156228    0.759068    0.299401
C     -1.600470    0.396515    0.257131
C     -1.593388   -1.039582   -0.290171
C     -0.148605   -1.361314   -0.508488
C      0.643917   -0.356380   -0.178392
C      2.138560   -0.380877   -0.286858
H     -0.366227    2.705490    1.054453
H      1.376225    2.139461    0.723374
H     -2.039140    0.430440    1.278003
H     -2.152102    1.079006   -0.425270
H     -2.144848   -1.100629   -1.252817
H     -2.032234   -1.747281    0.445422
H      0.205338   -2.309496   -0.893008
H      2.586035   -0.217693    0.715664
H      2.495343   -1.356071   -0.681817
H      2.474066    0.424999   -0.972362
17

C      2.063907    0.019103   -0.294837
C      0.633288    0.408081   -0.094767
C      0.107151    1.542121   -0.533431
C     -1.280072    1.606400   -0.112089
C     -1.575278    0.514455    0.575172
C     -0.385486   -0.390128    0.664047
C     -0.669066   -1.737523   -0.001640
H      2.279019   -0.941507    0.217680
H      2.271971   -0.095868   -1.379191
H      2.728476    0.802820    0.125692
H      0.634074    2.302167   -1.095743
H     -1.967262    2.416781   -0.315340
H     -2.545479    0.314800    1.011341
H     -0.074878   -0.523363    1.722707
H     -1.494174   -2.255301    0.532158
H     -0.959527   -1.600325   -1.066101
H      0.233336   -2.382716    0.044342
19

C      2.013312   -0.734610   -0.125180
C      0.540269   -0.478806    0.018105
C     -0.038853    0.710111   -0.125323
C      0.690175    1.981744   -0.452874
C     -1.512106    0.645589    0.076791
C     -1.795525   -0.828286    0.383907
C     -0.443700   -1.547812    0.341400
H      2.346486   -0.459113   -1.147655
H      2.574902   -0.134485    0.621026
H      2.235704   -1.809266    0.043344
H      1.207440    1.879301   -1.429758
H      1.435863    2.203928    0.338922
H     -0.023882    2.829593   -0.516269
H     -1.809108    1.293070    0.929898
H     -2.038693    0.966805   -0.847740
H     -2.258041   -0.932213    1.389919
H     -2.486031   -1.256256   -0.375583
H     -0.433893   -2.327796   -0.450283
H     -0.204322   -2.001499    1.327351
21

C      0.959623    1.528769    0.398760
C      0.420115    0.613335   -0.715047
C     -1.083481    0.279033   -0.695799
C     -1.899265    0.769126    0.508983
C     -0.749714   -1.214254   -0.627771
C      0.747021   -0.889152   -0.622332
C      1.464645   -1.377644    0.643996
H      0.692946    1.174793    1.414089
H      2.065728    1.585936    0.324430
H      0.551607    2.552253    0.263629
H      0.715565    1.013662   -1.710981
H     -1.575360    0.548529   -1.657095
H     -1.478167    0.401848    1.468576
H     -1.928043    1.878719    0.518786
H     -2.940602    0.394016    0.422437
H     -1.108187   -1.717743    0.298104
H     -1.055346   -1.751312   -1.552306
H      1.252313   -1.256026   -1.543606
H      1.566675   -2.482413    0.603331
H      2.481374   -0.935260    0.695774
H      0.900552   -1.116214    1.564044
21

C      0.896445    1.674697   -0.531882
C      0.081962    0.384106   -0.700872
C     -1.075143    0.264592    0.300659
C     -2.439705    0.060983   -0.364107
C     -0.468476   -1.026826    0.855488
C      0.690458   -0.914713   -0.137729
C      2.065845   -0.818891    0.537796
H      0.303222    2.532690   -0.912051
H      1.833296    1.608996   -1.123576
H      1.145466    1.871208    0.532021
H     -0.237222    0.250708   -1.759409
H     -1.098659    1.074530    1.064218
H     -2.407270   -0.765851   -1.106393
H     -3.198145   -0.180873    0.409808
H     -2.743827    0.995656   -0.880361
H     -1.088965   -1.932517    0.674613
H     -0.163720   -0.918085    1.919926
H      0.664312   -1.734161   -0.890425
H      2.337558   -1.810814    0.955941
H      2.833814   -0.534002   -0.211292
H      2.068754   -0.081432    1.367627
21

C      0.340093    2.177600   -0.208736
C      0.115381    0.743273    0.278687
C     -1.086241    0.058466   -0.386763
C     -2.064698   -0.562619    0.614378
C     -0.148042   -0.962385   -1.034712
C      1.053951   -0.275373   -0.382469
C      1.792836   -1.164338    0.622120
H     -0.471764    2.831159    0.173904
H      0.350491    2.229947   -1.319099
H      1.310920    2.553090    0.177489
H      0.104016    0.684724    1.391259
H     -1.605449    0.689413   -1.143141
H     -1.535463   -1.205203    1.350834
H     -2.598678    0.243587    1.159787
H     -2.811236   -1.179261    0.071185
H     -0.312050   -2.009428   -0.693619
H     -0.130909   -0.866792   -2.142389
H      1.743614    0.167006   -1.136422
H      1.090156   -1.614761    1.356100
H      2.318234   -1.979379    0.081483
H      2.544837   -0.558725    1.170122
21

C      2.632963    0.026058   -0.877225
C      1.744965    0.809755    0.088880
C      0.635253   -0.054069    0.709497
C     -0.459041   -0.441913   -0.305013
C     -1.390864    0.705664   -0.695649
C     -2.564128   -0.032726   -0.066717
C     -1.639060   -1.173846    0.332981
H      3.479993    0.666821   -1.201127
H      2.063329   -0.274165   -1.780622
H      3.044800   -0.878320   -0.381032
H      2.385033    1.199697    0.909745
H      1.306550    1.684742   -0.437153
H      0.180655    0.510664    1.553712
H      1.080983   -0.978887    1.136307
H     -0.070476   -0.995838   -1.187239
H     -1.496180    0.807402   -1.797835
H     -1.176352    1.666829   -0.178451
H     -3.325444   -0.342003   -0.815909
H     -2.983785    0.503596    0.812403
H     -1.563493   -1.288233    1.437218
H     -1.885701   -2.121228   -0.194581
19

C      2.850531   -0.285758   -0.407682
C      1.946586    0.696642   -0.350404
C      0.817852    0.677381    0.643564
C     -0.204767   -0.423202    0.308560
C     -1.455777   -0.373548    1.183902
C     -2.304745   -0.081750   -0.046094
C     -1.060721   -0.126031   -0.922730
H      2.791826   -1.139185    0.260989
H      3.660778   -0.236548   -1.127747
H      2.044510    1.545929   -1.020113
H      1.227253    0.504832    1.662557
H      0.322933    1.673588    0.643388
H      0.240704   -1.442968    0.281691
H     -1.694716   -1.360639    1.636815
H     -1.469368    0.465139    1.915002
H     -3.019566   -0.901763   -0.276633
H     -2.767743    0.928794   -0.014254
H     -1.078528   -0.976009   -1.639363
H     -0.847041    0.855096   -1.401839
17

C      3.360780    0.100147   -0.084982
C      2.248361   -0.352356   -0.190043
C      0.894071   -0.902140   -0.318305
C     -0.038389   -0.286350    0.736008
C     -0.443884    1.159264    0.446149
C     -1.894500    0.721601    0.297375
C     -1.494985   -0.720145    0.581269
H      4.337176    0.497654    0.007425
H      0.518627   -0.705753   -1.346037
H      0.943172   -2.000974   -0.166137
H      0.328750   -0.426291    1.778084
H     -0.291094    1.824480    1.323933
H     -0.027731    1.569712   -0.500530
H     -2.552318    1.146408    1.086907
H     -2.277849    0.861727   -0.737031
H     -1.927349   -1.098002    1.533554
H     -1.682840   -1.388982   -0.287964
19

C      3.136610    0.243710   -0.128912
C      1.802475   -0.417765    0.026025
C      0.687043    0.161374   -0.437074
C     -0.652834   -0.517185   -0.286195
C     -1.189826   -0.485081    1.143497
C     -2.372217    0.355088    0.680603
C     -1.836636    0.333818   -0.744627
H      3.133774    1.227395    0.386458
H      3.925712   -0.394719    0.320473
H      3.363773    0.390955   -1.205912
H      1.748213   -1.381550    0.525413
H      0.754551    1.120744   -0.943867
H     -0.671875   -1.537805   -0.729768
H     -1.500064   -1.491257    1.500910
H     -0.541175    0.062859    1.863077
H     -3.341959   -0.179813    0.781005
H     -2.368842    1.375620    1.122363
H     -1.567821    1.350987   -1.105816
H     -2.508903   -0.217373   -1.438044
19

C      2.458143    0.090289   -0.733164
C      1.950212    0.635680    0.570100
C      0.726791    0.366641    1.056052
C     -0.269440   -0.518459    0.337655
C     -1.613544   -0.648873    1.054611
C     -2.304601    0.037062   -0.115608
C     -0.967424    0.178038   -0.829119
H      2.466509   -1.019466   -0.706463
H      3.494742    0.447190   -0.906959
H      1.819776    0.440124   -1.570879
H      2.610236    1.274187    1.150172
H      0.459328    0.794575    2.018055
H      0.148409   -1.512349    0.062560
H     -1.930937   -1.708763    1.166789
H     -1.701143   -0.061299    1.994955
H     -3.006590   -0.637590   -0.652866
H     -2.743904    1.019464    0.164627
H     -0.921904   -0.419587   -1.765664
H     -0.674658    1.243136   -0.965243
17

C      3.269296    0.073884   -0.706613
C      1.966595    0.033037   -0.042565
C      0.892502   -0.000598    0.503909
C     -0.419498   -0.041651    1.170786
C     -1.370693    1.046940    0.681892
C     -2.297601   -0.019946    0.114008
C     -1.347085   -1.108255    0.595671
H      3.154195    0.510188   -1.720141
H      3.967989    0.698150   -0.112511
H      3.673860   -0.955695   -0.791104
H     -0.339216   -0.085104    2.278956
H     -1.837740    1.606917    1.521434
H     -0.949253    1.705043   -0.111116
H     -3.281354   -0.051427    0.631566
H     -2.368911    0.023636   -0.994892
H     -1.801039   -1.743581    1.387394
H     -0.912047   -1.691540   -0.246999
21

C      2.783417    0.087693   -0.758028
C      1.729692   -0.948550   -0.367120
C      0.301222   -0.492612   -0.694783
C     -0.177464    0.610646    0.270554
C     -1.007511    0.133492    1.458564
C     -1.674363    0.925032    0.336449
C     -2.629288    0.134244   -0.565825
H      3.796035   -0.329838   -0.575782
H      2.696144    0.342276   -1.835683
H      2.675469    1.010229   -0.151643
H      1.816125   -1.179180    0.717162
H      1.939862   -1.884831   -0.928503
H     -0.352494   -1.388897   -0.648973
H      0.258430   -0.106342   -1.735836
H      0.472120    1.488483    0.470404
H     -1.222743   -0.956027    1.490712
H     -0.837692    0.718987    2.386501
H     -1.914454    1.982251    0.579009
H     -3.668681    0.464374   -0.361057
H     -2.584864   -0.961329   -0.393987
H     -2.398963    0.349898   -1.629943
21

C      3.240518   -0.050209   -0.452073
C      1.814491   -0.497184   -0.760218
C      0.788774    0.432732   -0.106447
C     -0.635890   -0.019517   -0.451428
C     -1.248540   -1.039940    0.503592
C     -1.704712    0.414545    0.544997
C     -3.087601    0.672795   -0.052735
H      3.960092   -0.740932   -0.939980
H      3.415261    0.976328   -0.839002
H      3.421358   -0.065213    0.643910
H      1.672279   -1.533610   -0.383374
H      1.668411   -0.500305   -1.862607
H      0.955852    0.453964    0.994012
H      0.927017    1.465342   -0.493283
H     -0.948356   -0.107176   -1.514874
H     -1.945826   -1.753489    0.014781
H     -0.608959   -1.341303    1.360554
H     -1.372153    0.988886    1.436506
H     -3.153683    1.734491   -0.368562
H     -3.860094    0.483003    0.721044
H     -3.298238    0.026792   -0.932622
19

C      2.998809   -0.499654    0.057920
C      1.868557   -1.076683    0.477050
C      0.630159   -0.275273    0.762977
C      0.033992    0.278763   -0.544247
C     -1.145567   -0.501347   -1.117843
C     -1.373697    0.878497   -0.506431
C     -2.122947    0.901836    0.831189
H      3.881125   -1.103885   -0.126113
H      3.052655    0.573115   -0.101363
H      1.853374   -2.149554    0.645415
H     -0.083777   -0.932085    1.302526
H      0.886030    0.571105    1.435916
H      0.704913    0.745476   -1.297546
H     -1.176741   -0.514362   -2.227615
H     -1.491033   -1.369784   -0.517109
H     -1.547474    1.698162   -1.235857
H     -3.146915    1.293442    0.659799
H     -2.219247   -0.101433    1.295667
H     -1.602214    1.583664    1.535276
19

C      2.668642   -1.218852    0.005707
C      2.232452   -0.206590   -0.749661
C      1.141150    0.714727   -0.284195
C     -0.209395   -0.012445   -0.270721
C     -0.656949   -0.563858    1.080464
C     -1.297582    0.701797    0.522927
C     -2.719525    0.522857   -0.008805
H      3.467351   -1.859263   -0.353976
H      2.238653   -1.413978    0.983097
H      2.697456   -0.028218   -1.714817
H      1.406703    1.134799    0.711468
H      1.067537    1.563848   -0.996315
H     -0.545426   -0.577731   -1.167420
H     -1.268528   -1.488615    1.010090
H      0.034656   -0.383857    1.930774
H     -1.016805    1.641903    1.045384
H     -2.933341    1.321844   -0.748544
H     -2.869752   -0.463895   -0.498300
H     -3.437298    0.615528    0.832453
17

C      3.474542   -0.339343   -0.405514
C      2.271718   -0.314978   -0.483272
C      0.809863   -0.284727   -0.578315
C      0.199288   -0.458878    0.820773
C     -0.292046    0.819451    1.494600
C     -1.301022   -0.210711    0.994567
C     -2.121536    0.200170   -0.233897
H      4.530375   -0.360709   -0.337029
H      0.480020   -1.125211   -1.223761
H      0.516539    0.669794   -1.061992
H      0.614630   -1.229627    1.506153
H     -0.200483    1.750224    0.894825
H     -0.159907    0.823993    2.596991
H     -1.784058   -0.823879    1.785009
H     -1.717975    1.096262   -0.749378
H     -3.156530    0.434654    0.090192
H     -2.163418   -0.646485   -0.950277
17

C      3.455620   -1.061323    0.360300
C      2.441217   -0.629234   -0.127238
C      1.208498   -0.103253   -0.719808
C      0.034837   -0.334981    0.236018
C     -0.212853    0.776260    1.252475
C     -1.137639    0.621374    0.049976
C     -2.513822    0.036781    0.367550
H      4.345959   -1.440627    0.788498
H      1.010007   -0.643026   -1.668960
H      1.354520    0.973553   -0.954542
H     -0.209393   -1.364810    0.577454
H      0.473621    1.647545    1.189789
H     -0.615875    0.417824    2.223791
H     -1.038247    1.410074   -0.726821
H     -3.190256    0.853908    0.693527
H     -2.474401   -0.733809    1.167852
H     -2.931793   -0.426257   -0.550189
19

C      2.915793   -0.774144   -0.049854
C      1.608727   -0.677114    0.673503
C      0.738274    0.301209    0.395162
C     -0.560788    0.416868    1.147117
C     -1.565272   -0.690465    0.835245
C     -1.827915    0.728509    0.348115
C     -1.712215    0.921835   -1.168524
H      3.514484    0.144772    0.124371
H      3.486144   -1.650428    0.323016
H      2.737499   -0.898525   -1.138924
H      1.370246   -1.418389    1.431647
H      0.992023    1.058551   -0.341583
H     -0.549853    0.731570    2.212215
H     -1.251279   -1.422762    0.059471
H     -2.188058   -0.992231    1.703636
H     -2.616666    1.276361    0.906145
H     -1.344151    1.947513   -1.378287
H     -1.029289    0.188919   -1.648874
H     -2.717706    0.807951   -1.623865
19

C      3.315467   -0.134211    0.602276
C      1.940569   -0.599064    0.235165
C      0.947219    0.276045    0.037635
C     -0.423695   -0.194593   -0.353429
C     -1.233232   -0.776445    0.801753
C     -1.567643    0.605622    0.256417
C     -2.836633    0.674560   -0.592515
H      3.282395    0.427248    1.559842
H      3.987226   -1.009696    0.722511
H      3.719895    0.521718   -0.197360
H      1.755054   -1.665016    0.132417
H      1.137039    1.343049    0.120869
H     -0.588210   -0.682895   -1.338156
H     -1.925024   -1.593728    0.505214
H     -0.735729   -0.760685    1.795639
H     -1.300666    1.453061    0.924613
H     -2.775475    1.554724   -1.265518
H     -2.983520   -0.236692   -1.212173
H     -3.715035    0.796999    0.074532
19

C      2.336158    0.595934    0.426701
C      1.573437    0.679788   -0.863347
C      0.480327   -0.056954   -1.113640
C     -0.078128   -1.040350   -0.114397
C     -1.545715   -1.399329   -0.330230
C     -1.144027   -0.534349    0.858595
C     -1.578180    0.933603    0.768222
H      3.192297    1.301915    0.400757
H      1.677625    0.866408    1.278473
H      2.727559   -0.432980    0.571188
H      1.924327    1.368200   -1.626578
H     -0.011073    0.056346   -2.075940
H      0.552014   -1.884906    0.237097
H     -1.800724   -2.445251   -0.058150
H     -2.062937   -0.870583   -1.160240
H     -1.168090   -1.048349    1.842871
H     -0.834962    1.567464    1.294390
H     -1.679852    1.293077   -0.277872
H     -2.560057    1.050314    1.271710
19

C      2.603378   -0.779740   -0.261541
C      2.216684    0.616018    0.132791
C      0.945007    1.044996    0.149169
C     -0.213515    0.168843   -0.246111
C     -0.706653   -0.753087    0.864761
C     -1.517231    0.477335    0.480107
C     -2.789962    0.186614   -0.314615
H      3.706491   -0.890705   -0.207356
H      2.138340   -1.514238    0.428897
H      2.275638   -0.986592   -1.302037
H      3.004095    1.309353    0.413655
H      0.748464    2.077128    0.425163
H     -0.280166   -0.241497   -1.276846
H     -1.099544   -1.726980    0.502113
H     -0.175032   -0.659805    1.836396
H     -1.507290    1.298613    1.229238
H     -3.072388    1.091804   -0.890984
H     -2.664479   -0.660743   -1.023245
H     -3.611838   -0.057314    0.390055
17

C      3.072939    0.748856   -0.299762
C      1.845175    0.170049    0.245158
C      0.831862   -0.305749    0.692680
C     -0.404970   -0.885943    1.239529
C     -1.294471   -1.534681    0.184475
C     -1.728161   -0.230294    0.843249
C     -1.687278    1.005888   -0.064038
H      3.688889   -0.052878   -0.756537
H      2.815072    1.502427   -1.072097
H      3.645855    1.236304    0.515700
H     -0.378883   -1.413091    2.216325
H     -0.939574   -1.455141   -0.866716
H     -1.847260   -2.427040    0.546664
H     -2.544683   -0.328834    1.589790
H     -1.409883    1.893540    0.541517
H     -2.697372    1.171998   -0.492300
H     -0.967257    0.904589   -0.903963
17

C      3.620842    0.068863    0.266767
C      2.180179    0.114321    0.017348
C      0.992717    0.151177   -0.187519
C     -0.453279    0.196530   -0.437013
C     -1.153519   -1.143719   -0.246280
C     -1.304758   -0.047541    0.801182
C     -2.661532    0.656220    0.806163
H      4.044991   -0.852922   -0.181855
H      4.103493    0.957800   -0.188966
H      3.806929    0.067066    1.360485
H     -0.862888    0.849250   -1.237251
H     -2.028533   -1.297841   -0.913465
H     -0.505992   -1.988367    0.075323
H     -0.773841   -0.234791    1.760228
H     -3.079565    0.780772   -0.216430
H     -3.376950    0.064025    1.413639
H     -2.548292    1.659154    1.267318
21

C     -1.783914    1.128586    0.520055
C     -0.929160    0.168863   -0.320295
C     -1.763296   -1.064420   -0.695899
C      0.342677   -0.250317    0.457274
C      1.376437   -1.009198   -0.378877
C      2.389941    0.099787   -0.139472
C      1.358729    0.875612    0.666163
H     -2.696692    1.421209   -0.041669
H     -2.089743    0.647366    1.474019
H     -1.220245    2.055538    0.753714
H     -0.638645    0.692089   -1.259049
H     -2.068412   -1.623032    0.215150
H     -1.184507   -1.745410   -1.353787
H     -2.676204   -0.756098   -1.248942
H      0.111434   -0.780287    1.409198
H      1.117490   -1.102481   -1.456374
H      1.679928   -1.970077    0.091124
H      2.681474    0.622277   -1.076884
H      3.250699   -0.235407    0.479658
H      1.652113    0.990270    1.732500
H      1.089898    1.835132    0.172393
19

C     -1.311506    1.146343   -0.669625
C     -1.058163   -0.129343   -0.327024
C     -2.152896   -1.150270   -0.485903
C      0.298467   -0.565547    0.214017
C      1.495409   -0.135205   -0.633996
C      2.013131    0.701972    0.529936
C      0.823141    0.272211    1.380152
H     -0.555162    1.918479   -0.573369
H     -2.285787    1.434920   -1.053184
H     -1.817418   -2.159886   -0.169698
H     -3.027544   -0.863207    0.135501
H     -2.464794   -1.204259   -1.550497
H      0.343782   -1.652416    0.448990
H      2.171061   -0.985810   -0.872047
H      1.237867    0.481510   -1.522683
H      2.005811    1.791349    0.307139
H      2.981185    0.327446    0.928804
H      1.130571   -0.355240    2.245306
H      0.172843    1.126952    1.668180
21

C     -1.309387    1.441754   -0.560826
C     -0.837417    0.239207    0.262260
C     -2.044439   -0.567546    0.752382
C      0.070188   -0.661105   -0.604572
C      1.017980   -1.567306    0.177412
C      1.582457   -0.415438   -0.648388
C      2.186224    0.737122    0.163264
H     -1.950650    2.103112    0.060181
H     -0.440128    2.035495   -0.911882
H     -1.890997    1.107320   -1.447022
H     -0.309383    0.620155    1.160773
H     -1.705049   -1.424641    1.372244
H     -2.632469   -0.958180   -0.106190
H     -2.704239    0.070601    1.378385
H     -0.358532   -1.138065   -1.512660
H      1.010729   -1.429152    1.280099
H      1.162747   -2.567882   -0.281728
H      2.073974   -0.716366   -1.597991
H      3.291603    0.687182    0.080156
H      1.932853    0.696592    1.242800
H      1.853934    1.707140   -0.258698
21

C     -1.568492    1.438561    0.177009
C     -1.117556    0.077644   -0.360507
C     -2.178662   -0.988547   -0.074074
C      0.215969   -0.323452    0.295939
C      1.095776   -1.258004   -0.530891
C      1.466356    0.213995   -0.392736
C      2.646367    0.499909    0.535389
H     -1.713836    1.397927    1.278229
H     -0.804810    2.211508   -0.054650
H     -2.524341    1.742123   -0.300928
H     -1.007360    0.164846   -1.465312
H     -1.855988   -1.967976   -0.487309
H     -3.140985   -0.710495   -0.554576
H     -2.341302   -1.097676    1.020036
H      0.270247   -0.474643    1.396510
H      1.697574   -1.967753    0.076050
H      0.699435   -1.534146   -1.531295
H      1.321806    0.827492   -1.308064
H      2.680298   -0.190991    1.405638
H      2.567368    1.540795    0.911806
H      3.592135    0.398883   -0.036265
19

C     -1.225904    1.591761    0.085958
C     -1.049431    0.270283    0.221181
C     -2.036070   -0.676597   -0.407132
C      0.055814   -0.249472    1.113812
C      0.873246   -1.414969    0.558440
C      1.503226   -0.032831    0.656561
C      1.774015    0.631050   -0.699247
H     -2.039882    1.985980   -0.515249
H     -0.558471    2.294559    0.575730
H     -1.959579   -0.615575   -1.513129
H     -1.842710   -1.723290   -0.092234
H     -3.068776   -0.409876   -0.096888
H     -0.095227   -0.254173    2.214043
H      0.613003   -1.752081   -0.468330
H      1.226464   -2.127551    1.333219
H      2.254076    0.071656    1.468384
H      2.778897    0.324379   -1.056368
H      1.029677    0.353358   -1.475750
H      1.767630    1.733390   -0.573390
19

C     -1.566966    1.526901    0.142659
C     -1.276280    0.219051    0.110460
C     -2.333712   -0.768423   -0.301108
C      0.071007   -0.265186    0.587383
C      0.814079   -1.174225   -0.390426
C      1.261289    0.267676   -0.206820
C      2.550390    0.446977    0.594311
H     -2.544449    1.887007   -0.164447
H     -0.831219    2.252229    0.477334
H     -2.606767   -0.603264   -1.364654
H     -1.970546   -1.811218   -0.184412
H     -3.237195   -0.642203    0.332527
H      0.231839   -0.477971    1.666059
H      0.308891   -1.362063   -1.362184
H      1.450544   -1.943094    0.097488
H      1.046414    0.937475   -1.067662
H      2.568788    1.468540    1.027206
H      3.420491    0.332470   -0.084881
H      2.643403   -0.290679    1.420775
23

C      2.656007   -0.034642   -0.079582
C      1.356505    0.260235   -0.830281
C      0.144975    0.502203    0.104801
C     -0.157924   -0.701155    1.041226
C     -0.547778   -1.992772    0.318051
C     -1.077140    0.943752   -0.739117
C     -2.284752    1.353029    0.105497
H      2.626299   -1.046553    0.374797
H      3.507714   -0.006916   -0.791599
H      2.831769    0.725728    0.710700
H      1.526155    1.175893   -1.438536
H      1.145546   -0.565659   -1.542223
H      0.410732    1.360766    0.762019
H     -0.971100   -0.430244    1.746444
H      0.724156   -0.906375    1.682943
H      0.272167   -2.343183   -0.341189
H     -0.742415   -2.786083    1.070146
H     -1.473771   -1.852817   -0.275789
H     -1.376358    0.142647   -1.447753
H     -0.787636    1.825747   -1.351862
H     -1.984206    2.078350    0.891107
H     -3.044823    1.833446   -0.546143
H     -2.754120    0.464601    0.576343
21

C     -1.798749    1.917117    0.277000
C     -0.832774    1.321322   -0.428898
C     -0.001428    0.192433    0.140185
C      1.470344    0.654599    0.215586
C      2.349190   -0.276044    1.053448
C     -0.159777   -1.072283   -0.733562
C     -1.592993   -1.607221   -0.728175
H     -2.371623    2.726015   -0.164466
H     -2.027391    1.607010    1.291891
H     -0.633726    1.664121   -1.440658
H     -0.345248   -0.046423    1.172633
H      1.511371    1.662545    0.685666
H      1.899212    0.743831   -0.806863
H      2.491558   -1.252102    0.546577
H      3.349803    0.186241    1.188356
H      1.900282   -0.439427    2.056136
H      0.495215   -1.881677   -0.350178
H      0.145375   -0.855527   -1.781016
H     -1.923284   -1.816385    0.311537
H     -1.638285   -2.551431   -1.310810
H     -2.287070   -0.876715   -1.194389
19

C     -0.002798    2.508950   -0.659314
C     -0.002766    1.368835   -0.266937
C     -0.002741   -0.026236    0.214325
C     -1.258584   -0.765752   -0.290554
C     -2.548379   -0.207104    0.313425
C      1.272923   -0.754041   -0.256743
C      2.540904   -0.183564    0.381404
H     -0.002825    3.509484   -1.003792
H     -0.017642   -0.016457    1.326589
H     -1.317754   -0.707895   -1.400166
H     -1.192104   -1.840123   -0.011228
H     -2.510478   -0.260376    1.422259
H     -2.703549    0.847071    0.001202
H     -3.413090   -0.807301   -0.040167
H      1.361172   -0.695497   -1.364385
H      1.208947   -1.829018    0.020835
H      3.420265   -0.775695    0.051107
H      2.694605    0.872037    0.073303
H      2.473894   -0.237319    1.488837
19

C      1.251680   -2.069786   -0.354745
C      1.266477   -1.048696    0.510485
C      0.277621    0.093655    0.441684
C     -1.136286   -0.422420    0.596889
C     -1.588125   -0.873789    1.770825
C      0.456670    0.888697   -0.869226
C     -0.316470    2.208006   -0.855581
H      0.515546   -2.119784   -1.150934
H      1.980850   -2.868171   -0.263933
H      2.015085   -1.041708    1.297407
H      0.497802    0.780915    1.289467
H     -1.805700   -0.434483   -0.259002
H     -2.605589   -1.241038    1.856572
H     -0.949628   -0.880895    2.649084
H      1.534411    1.124835   -1.011552
H      0.124934    0.281996   -1.740236
H     -0.128578    2.757019   -1.802275
H     -1.407646    2.023078   -0.768226
H      0.016946    2.842568   -0.007093
17

C      1.364028    2.454788   -0.915313
C      0.825780    1.395419   -0.710493
C      0.168148    0.102489   -0.460715
C      1.130930   -0.848389    0.214354
C      1.684632   -0.595820    1.406831
C     -1.124356    0.310226    0.353177
C     -1.930045   -0.981008    0.498491
H      1.836476    3.384534   -1.094751
H     -0.104047   -0.323312   -1.450958
H      1.381533   -1.776809   -0.290551
H      2.368287   -1.312613    1.849748
H      1.467337    0.321937    1.944088
H     -1.765741    1.058270   -0.163594
H     -0.890191    0.710584    1.363739
H     -2.180832   -1.394727   -0.501385
H     -1.356713   -1.736680    1.075752
H     -2.875225   -0.768887    1.041254
21

C     -1.393649    1.151807    1.662843
C     -0.151005    1.097455    0.820860
C      0.156605    0.072758   -0.007197
C     -0.768244   -1.110517   -0.214561
C     -1.742149   -0.848456   -1.359498
C      1.439540    0.133921   -0.807063
C      2.653833   -0.132724    0.078116
H     -1.418430    2.107826    2.226497
H     -2.298712    1.099118    1.023769
H     -1.397286    0.316484    2.393804
H      0.534782    1.937212    0.899694
H     -0.166389   -2.012363   -0.459215
H     -1.331891   -1.353490    0.710229
H     -2.402918   -1.730523   -1.494220
H     -1.186039   -0.674305   -2.305302
H     -2.374034    0.037597   -1.141770
H      1.538407    1.131158   -1.288756
H      1.423402   -0.623219   -1.620778
H      2.740469    0.644545    0.866699
H      2.567870   -1.131989    0.556103
H      3.575837   -0.112292   -0.540252
21

C     -1.498618   -1.398932   -0.956973
C     -1.135351   -0.687186    0.343207
C     -0.112163    0.444637    0.109630
C      1.277313    0.124928   -0.481688
C      2.062633   -0.836415    0.406064
C     -0.702006    1.794491   -0.286679
C     -0.151254    1.586907    1.119962
H     -2.299413   -2.142761   -0.761062
H     -0.617838   -1.936189   -1.366504
H     -1.868259   -0.667873   -1.707128
H     -0.715877   -1.423926    1.059913
H     -2.070948   -0.290385    0.795751
H      1.156738   -0.322702   -1.490404
H      1.878862    1.052208   -0.607711
H      3.084878   -0.970399   -0.006206
H      1.567937   -1.829590    0.438295
H      2.145325   -0.430214    1.436587
H     -0.061869    2.442297   -0.922884
H     -1.810877    1.852541   -0.324485
H     -0.939311    1.525212    1.900564
H      0.810099    2.113351    1.301754
23

C     -2.798166    0.705040   -0.363251
C     -2.207104   -0.304525    0.619992
C     -1.310929   -1.354489   -0.060630
C     -0.068645   -0.783595   -0.768308
C      0.903973   -0.090058    0.196894
C      2.202967    0.298678   -0.518671
C      3.166760    1.003337    0.431683
H     -3.294562    0.181537   -1.207805
H     -3.553383    1.329605    0.158785
H     -2.007895    1.378346   -0.755282
H     -1.649294    0.229978    1.417087
H     -3.047022   -0.838273    1.115215
H     -0.982767   -2.090363    0.705532
H     -1.916924   -1.913761   -0.806520
H     -0.372355   -0.080677   -1.572794
H      0.456961   -1.632098   -1.258936
H      1.140256   -0.774559    1.041193
H      0.431997    0.829774    0.603694
H      2.697722   -0.612386   -0.920529
H      1.973662    0.978723   -1.368033
H      2.707208    1.934061    0.827480
H      4.096827    1.270566   -0.112859
H      3.430711    0.335141    1.278987
21

C      2.938492    0.636847    0.432266
C      2.455640   -0.183346   -0.505409
C      1.555713   -1.340801   -0.162929
C      0.114312   -1.088660   -0.622823
C     -0.571048    0.013880    0.197671
C     -2.027840    0.199710   -0.241474
C     -2.711902    1.297667    0.567863
H      3.568195    1.473648    0.148281
H      2.708590    0.486118    1.482606
H      2.685664    0.011669   -1.548758
H      1.942748   -2.241819   -0.684892
H      1.573642   -1.560496    0.927702
H     -0.457964   -2.035078   -0.506408
H      0.107792   -0.818268   -1.702071
H     -0.543884   -0.258285    1.275911
H     -0.025244    0.972891    0.061307
H     -2.586514   -0.751285   -0.100710
H     -2.062569    0.472524   -1.318847
H     -2.712521    1.037480    1.647857
H     -3.763402    1.409011    0.228878
H     -2.187899    2.266594    0.423978
19

C      4.109132   -0.648033   -0.367467
C      2.911680   -0.583644   -0.491529
C      1.454329   -0.505872   -0.642912
C      0.885925    0.615617    0.235197
C     -0.620958    0.827118    0.020013
C     -1.466430   -0.318261    0.595925
C     -2.957082   -0.013267    0.478472
H      5.160260   -0.704403   -0.258430
H      1.022649   -1.484841   -0.349564
H      1.218484   -0.312230   -1.710967
H      1.086274    0.397191    1.307622
H      1.404427    1.567373   -0.017228
H     -0.833545    0.946718   -1.065176
H     -0.909354    1.774804    0.525826
H     -1.215312   -0.470389    1.668204
H     -1.257792   -1.260341    0.046488
H     -3.543728   -0.860090    0.892943
H     -3.239218    0.126766   -0.586864
H     -3.209739    0.905785    1.049059
19

C      2.929401   -1.067143    0.614696
C      2.498703   -0.047686   -0.134287
C      1.283208    0.753897    0.242762
C     -0.001740   -0.060700    0.050347
C     -1.239292    0.777762    0.392586
C     -2.500887   -0.028505    0.249604
C     -2.971262   -0.392872   -0.946954
H      3.818353   -1.617060    0.323469
H      2.404852   -1.356602    1.520222
H      3.058763    0.229863   -1.022448
H      1.372420    1.089148    1.299451
H      1.242897    1.657827   -0.403118
H     -0.062439   -0.400392   -1.007201
H      0.023505   -0.957592    0.707942
H     -1.162988    1.129225    1.444502
H     -1.293254    1.672034   -0.266433
H     -3.060616   -0.294574    1.141479
H     -2.447317   -0.124436   -1.859281
H     -3.892307   -0.962193   -1.017728
17

C      3.304623    0.864380    0.673504
C      2.500614    0.097171    0.206267
C      1.520676   -0.837276   -0.363380
C      0.164746   -0.732201    0.345202
C     -0.546851    0.595255    0.041206
C     -1.873659    0.675048    0.744946
C     -2.917992   -0.066728    0.364270
H      4.010037    1.538107    1.083826
H      1.913117   -1.869358   -0.244712
H      1.405545   -0.634054   -1.449448
H      0.305304   -0.844198    1.443612
H     -0.471441   -1.575276   -0.002074
H     -0.700162    0.707885   -1.054497
H      0.083682    1.441625    0.388716
H     -1.994693    1.377881    1.564059
H     -3.866599    0.024649    0.883169
H     -2.836947   -0.762908   -0.464992
15

C     -3.239533   -0.101973   -1.053126
C     -2.140839    0.220306   -0.675729
C     -0.803762    0.613066   -0.216904
C     -0.217201   -0.463401    0.704879
C      1.163886   -0.072159    1.244490
C      2.178287   -0.075463    0.181932
C      3.010627   -0.077746   -0.690171
H     -4.203963   -0.385047   -1.384311
H     -0.883742    1.578002    0.327617
H     -0.153512    0.755278   -1.105825
H     -0.146220   -1.432779    0.161998
H     -0.899805   -0.608926    1.571325
H      1.470286   -0.803661    2.021853
H      1.124567    0.934213    1.713313
H      3.740926   -0.079710   -1.456032
21

C      3.217159    0.225898    0.709933
C      2.072256   -0.134495   -0.184686
C      1.117051   -0.980599    0.225202
C     -0.036926   -1.360256   -0.664415
C     -1.009597   -0.193226   -0.890334
C     -1.726159    0.221203    0.402941
C     -2.723665    1.346123    0.142889
H      3.790979   -0.686450    0.977442
H      2.837179    0.708576    1.635085
H      3.892749    0.934520    0.186812
H      2.025643    0.301489   -1.178872
H      1.179733   -1.428110    1.213689
H     -0.584350   -2.212917   -0.207403
H      0.356520   -1.706418   -1.644863
H     -1.768054   -0.513834   -1.637703
H     -0.463773    0.676923   -1.316326
H     -2.270239   -0.650944    0.826504
H     -0.983654    0.570823    1.152507
H     -3.224114    1.626418    1.093664
H     -3.497991    1.015730   -0.581891
H     -2.200749    2.239547   -0.260176
21

C     -2.750761    0.730765    0.112240
C     -2.547390   -0.735474    0.364178
C     -1.464108   -1.420855   -0.042450
C     -0.291427   -0.804907   -0.762582
C      0.738338   -0.263962    0.235363
C      1.934269    0.359266   -0.493281
C      2.964865    0.895010    0.496296
H     -2.781046    0.931322   -0.979082
H     -1.938503    1.322459    0.581180
H     -3.717414    1.051844    0.553463
H     -3.329837   -1.273895    0.891150
H     -1.419822   -2.484667    0.172892
H      0.187590   -1.594145   -1.381702
H     -0.627236   -0.002444   -1.453511
H      0.265680    0.503433    0.885192
H      1.093962   -1.097400    0.881124
H      2.419552   -0.404412   -1.139547
H      1.585852    1.195996   -1.137403
H      3.817559    1.339280   -0.059132
H      3.348290    0.072670    1.137245
H      2.511588    1.680115    1.138368
19

C      3.281520   -0.133942    0.340132
C      2.523499   -0.076335   -0.758886
C      1.061567    0.270443   -0.694536
C      0.248482   -0.868252   -0.066291
C     -1.222466   -0.555211   -0.076386
C     -1.745935    0.383811    0.724243
C     -3.214693    0.673533    0.713862
H      4.336938   -0.372859    0.259733
H      2.859040    0.059382    1.321513
H      2.981369   -0.254198   -1.727513
H      0.930454    1.209319   -0.113344
H      0.695362    0.452027   -1.728561
H      0.415990   -1.800126   -0.649263
H      0.579329   -1.052379    0.979221
H     -1.872321   -1.129818   -0.731356
H     -1.104503    0.947524    1.396292
H     -3.527657    1.007576   -0.297916
H     -3.782907   -0.238347    0.994632
H     -3.443068    1.477852    1.444036
19

C      3.154193   -0.562973   -0.204159
C      2.086604   -0.103214   -0.863429
C      0.954022    0.586659   -0.154074
C      0.137421   -0.404504    0.682962
C     -1.019266    0.289619    1.356248
C     -2.229026    0.462179    0.794751
C     -2.600194   -0.057068   -0.564372
H      3.232698   -0.460586    0.873913
H      3.961723   -1.043521   -0.746769
H      2.049269   -0.202301   -1.944326
H      1.358509    1.393775    0.495741
H      0.299845    1.060184   -0.916167
H     -0.217031   -1.248323    0.053024
H      0.787482   -0.835062    1.474853
H     -0.854703    0.689782    2.352660
H     -2.988588    0.993923    1.360556
H     -1.939987    0.379606   -1.341136
H     -2.524699   -1.164326   -0.584973
H     -3.648273    0.226153   -0.795689
17

C      4.016377    0.374177    0.450165
C      2.850331    0.361433    0.144206
C      1.431424    0.346514   -0.228588
C      0.665268   -0.665620    0.627412
C     -0.784023   -0.726114    0.229900
C     -1.629399    0.278291    0.500820
C     -3.072919    0.196159    0.112413
H      5.039906    0.385228    0.718878
H      1.347476    0.075279   -1.302822
H      1.016738    1.366520   -0.082559
H      0.744290   -0.398643    1.704621
H      1.111359   -1.674994    0.488897
H     -1.151421   -1.622861   -0.262413
H     -1.273219    1.168890    1.011484
H     -3.598283    1.122760    0.424893
H     -3.550816   -0.673283    0.611325
H     -3.163090    0.086263   -0.988958
17

C      3.310902    0.631550   -0.090946
C      2.330959   -0.070007   -0.120030
C      1.136000   -0.924237   -0.155715
C      0.243530   -0.687284    1.067986
C     -0.355732    0.699011    1.069141
C     -1.491147    1.034267    0.431301
C     -2.339445    0.058736   -0.332364
H      4.170926    1.247654   -0.065151
H      0.577352   -0.727589   -1.093838
H      1.463592   -1.985186   -0.165507
H      0.848800   -0.815562    1.992039
H     -0.554916   -1.458180    1.103353
H      0.173426    1.474648    1.615388
H     -1.826919    2.065843    0.485410
H     -3.215942    0.587349   -0.761923
H     -2.710099   -0.738916    0.344727
H     -1.761289   -0.392095   -1.164196
19

C      4.084725   -0.574707   -0.344653
C      2.755673   -0.080459    0.014892
C      1.660057    0.326356    0.310837
C      0.326752    0.821106    0.670757
C     -0.756987   -0.050858    0.031760
C     -2.156058    0.455700    0.400250
C     -3.240783   -0.409957   -0.234169
H      4.753453   -0.514021    0.538508
H      4.008947   -1.629794   -0.679190
H      4.500011    0.044630   -1.166124
H      0.226918    0.803037    1.777063
H      0.228898    1.869946    0.317819
H     -0.639273   -0.033750   -1.074867
H     -0.641235   -1.100326    0.383886
H     -2.282435    0.438049    1.504847
H     -2.280464    1.503091    0.048239
H     -3.152654   -0.389254   -1.341369
H     -3.154619   -1.458861    0.121452
H     -4.240926   -0.019928    0.049674
17

C      3.251225   -0.070654   -0.381798
C      2.530208   -0.065569    0.743349
C      1.083600    0.345742    0.755065
C      0.203572   -0.706324    0.074774
C     -1.206928   -0.307728    0.133354
C     -2.366118    0.020029    0.181498
C     -3.772457    0.418392    0.240291
H      4.297085   -0.358624   -0.355010
H      2.808172    0.214323   -1.331225
H      3.009375   -0.335401    1.679909
H      0.760081    0.466234    1.812341
H      0.972793    1.329040    0.246349
H      0.494580   -0.821037   -0.990988
H      0.319077   -1.685932    0.586232
H     -4.404360   -0.478249    0.406388
H     -3.919540    1.134132    1.075124
H     -4.060367    0.901625   -0.715978
15

C     -2.264842    1.903806   -0.385940
C     -2.045340    0.804658    0.057997
C     -1.776796   -0.535022    0.599661
C     -0.755154   -1.290286   -0.254830
C      0.575646   -0.672645   -0.171713
C      1.666621   -0.164213   -0.103605
C      2.989682    0.454143   -0.020531
H     -2.457141    2.868646   -0.775820
H     -2.729763   -1.104949    0.613877
H     -1.412572   -0.443110    1.645658
H     -0.679547   -2.336369    0.110054
H     -1.083408   -1.316412   -1.316306
H      3.572255    0.205285   -0.931313
H      2.878903    1.555242    0.058114
H      3.521457    0.071225    0.874697
21

C     -3.019196    0.781490   -0.296042
C     -2.570785   -0.655346   -0.043983
C     -1.083251   -0.735820    0.159375
C     -0.224188   -0.547771   -0.854184
C      1.262759   -0.652200   -0.655909
C      1.797529    0.534480    0.154243
C      3.312189    0.450880    0.318121
H     -4.124350    0.812479   -0.398744
H     -2.566913    1.172751   -1.231989
H     -2.722450    1.431943    0.554468
H     -3.080079   -1.032994    0.868497
H     -2.871714   -1.300520   -0.897717
H     -0.707185   -0.981217    1.148979
H     -0.601778   -0.342942   -1.852410
H      1.752080   -0.663839   -1.654080
H      1.503434   -1.609129   -0.142786
H      1.329612    0.546974    1.162602
H      1.542830    1.485334   -0.363241
H      3.809564    0.467427   -0.675068
H      3.591197   -0.481930    0.853031
H      3.670694    1.319953    0.909026
21

C     -2.268093    0.911262   -1.081872
C     -1.853153   -0.486037   -0.635329
C     -1.307282   -0.447280    0.770683
C     -0.044945   -0.754376    1.125166
C      1.042378   -1.197039    0.175980
C      1.618819   -0.033794   -0.645277
C      2.339966    0.991676    0.228884
H     -3.058541    1.311904   -0.411599
H     -2.669187    0.867709   -2.116383
H     -1.395225    1.597962   -1.066987
H     -1.130824   -0.899775   -1.366404
H     -2.746181   -1.146335   -0.646139
H     -1.993264   -0.146233    1.557667
H      0.208992   -0.706627    2.180376
H      0.661934   -1.992556   -0.498978
H      1.863461   -1.656778    0.767849
H      2.345939   -0.445471   -1.378042
H      0.818264    0.474759   -1.220588
H      2.784344    1.779797   -0.414762
H      3.154433    0.504092    0.805691
H      1.628165    1.473141    0.932250
19

C      3.735758   -0.317917   -0.430993
C      2.546539   -0.756695   -0.832873
C      1.326645   -0.460483   -0.065173
C      0.133885   -0.903094   -0.471662
C     -1.117385   -0.621589    0.309071
C     -1.519323    0.854114    0.200233
C     -2.814704    1.128823    0.958307
H      4.620682   -0.546750   -1.010508
H      3.841084    0.269792    0.472724
H      2.483567   -1.341555   -1.743192
H      1.400086    0.124232    0.845300
H      0.056174   -1.506029   -1.369303
H     -1.936640   -1.254119   -0.096831
H     -0.962605   -0.901345    1.374379
H     -0.716643    1.498156    0.620669
H     -1.663218    1.124440   -0.868869
H     -3.079993    2.202936    0.864012
H     -3.644059    0.520202    0.538986
H     -2.689850    0.886882    2.035334
19

C      3.077743   -0.988050    0.685805
C      1.910822   -0.553412    0.218720
C      1.658385    0.889978    0.033759
C      0.501495    1.399705   -0.412049
C     -0.712452    0.585482   -0.770809
C     -1.468918    0.135216    0.485085
C     -2.698798   -0.690281    0.119409
H      3.871497   -0.298166    0.944947
H      3.247802   -2.049245    0.813793
H      1.153668   -1.286181   -0.025854
H      2.459035    1.585269    0.259399
H      0.436669    2.473487   -0.541766
H     -1.388001    1.221914   -1.382939
H     -0.424253   -0.284809   -1.398849
H     -0.809585   -0.477155    1.136141
H     -1.793547    1.028166    1.062943
H     -3.394130   -0.091142   -0.506393
H     -2.398048   -1.603549   -0.437017
H     -3.229383   -0.997229    1.045287
17

C      4.288821    0.076375   -0.019340
C      3.102195   -0.114557   -0.112834
C      1.686730   -0.342280   -0.225425
C      0.910128   -0.349101    0.859315
C     -0.567093   -0.601126    0.766935
C     -1.294943    0.589937    0.132339
C     -2.800850    0.349847    0.079587
H      5.330517    0.244012    0.062872
H      1.262949   -0.511204   -1.207522
H      1.348588   -0.199878    1.839999
H     -0.961944   -0.765882    1.793079
H     -0.751033   -1.524814    0.175257
H     -0.923474    0.754025   -0.902531
H     -1.097169    1.508764    0.726821
H     -3.300854    1.225538   -0.385334
H     -3.206175    0.212567    1.104745
H     -3.026391   -0.552224   -0.528288
17

C      2.878180    1.160679   -0.357868
C      2.252136    0.131598   -0.406423
C      1.503941   -1.098873   -0.464938
C      0.431877   -1.334081    0.300377
C     -0.124424   -0.348939    1.296904
C     -0.909132    0.785551    0.621417
C     -2.180996    0.283392   -0.061244
H      3.427051    2.064411   -0.314825
H      1.839980   -1.867667   -1.148589
H     -0.053845   -2.298974    0.219649
H     -0.796307   -0.887699    1.999768
H      0.702668    0.078733    1.904003
H     -0.272700    1.308126   -0.124001
H     -1.195294    1.528332    1.397050
H     -2.736329    1.144423   -0.489162
H     -2.836471   -0.231576    0.672910
H     -1.930335   -0.417436   -0.885353
19

C      2.143955   -1.364845   -1.071812
C      1.830118   -1.472745    0.222689
C      1.675818   -0.261913    1.100786
C      0.468805    0.543570    0.707556
C     -0.775604    0.077763    0.894551
C     -1.984530    0.884776    0.510383
C     -2.131619    0.975345   -1.006008
H      2.291294   -0.391826   -1.530892
H      2.254022   -2.256553   -1.680218
H      1.694781   -2.459468    0.655595
H      1.577343   -0.580803    2.160838
H      2.586714    0.369710    1.020417
H      0.620147    1.527263    0.271366
H     -0.924564   -0.895144    1.355535
H     -2.891087    0.396677    0.928128
H     -1.912170    1.905396    0.944842
H     -1.263107    1.505512   -1.451279
H     -2.205420   -0.041888   -1.446821
H     -3.054897    1.539173   -1.256046
17

C      2.494515    2.438735    1.509602
C      2.294364    1.398900    0.933223
C      2.050963    0.133913    0.230960
C      0.652651   -0.350288    0.485474
C     -0.415016    0.290597   -0.015861
C     -1.815742   -0.193973    0.237391
C     -2.105348   -1.481870   -0.528462
H      2.669877    3.351522    2.015555
H      2.213887    0.274919   -0.858654
H      2.775172   -0.622076    0.600338
H      0.515248   -1.256866    1.068777
H     -0.276418    1.199828   -0.594983
H     -2.532566    0.587260   -0.094964
H     -1.967930   -0.359273    1.326060
H     -3.158445   -1.787829   -0.354481
H     -1.438837   -2.300079   -0.182266
H     -1.956375   -1.323422   -1.618035
19

C      3.333246   -0.599324    0.631976
C      2.839918    0.516469   -0.280929
C      1.387206    0.428707   -0.462153
C      0.193005    0.356397   -0.611544
C     -1.259674    0.267982   -0.793687
C     -1.945674   -0.052174    0.536623
C     -3.459027   -0.145819    0.365567
H      2.859382   -0.516822    1.634012
H      4.434188   -0.520342    0.752743
H      3.094978   -1.592356    0.193635
H      3.091335    1.501991    0.164821
H      3.334888    0.433806   -1.271712
H     -1.628948    1.238517   -1.188932
H     -1.477451   -0.529202   -1.536293
H     -1.567502   -1.021231    0.930883
H     -1.716788    0.743983    1.279160
H     -3.866503    0.821065    0.000110
H     -3.716497   -0.948798   -0.357541
H     -3.930079   -0.382849    1.342874
17

C      3.874817   -0.575604    0.393634
C      2.972644   -0.363833    1.345554
C      1.638955    0.059315    1.014858
C      0.520473    0.414030    0.737661
C     -0.840008    0.845876    0.399640
C     -1.644291   -0.323947   -0.172361
C     -3.062056    0.109068   -0.533954
H      3.628577   -0.436343   -0.652437
H      4.875066   -0.893378    0.657676
H      3.239068   -0.509964    2.384505
H     -1.330337    1.231550    1.319161
H     -0.777965    1.666737   -0.346496
H     -1.143377   -0.713876   -1.086075
H     -1.699123   -1.144472    0.576923
H     -3.622981   -0.758275   -0.941549
H     -3.593091    0.483789    0.367181
H     -3.036371    0.909326   -1.304248
15

C      4.335418   -0.084576   -0.014634
C      3.151000   -0.183005   -0.214998
C      1.763833   -0.298181   -0.449471
C      0.579013   -0.396024   -0.648710
C     -0.864963   -0.514023   -0.890304
C     -1.661990   -0.422183    0.416165
C     -1.612892    0.977357    1.029476
H      5.375435    0.001861    0.161319
H     -1.186732    0.281485   -1.595811
H     -1.060449   -1.498173   -1.366113
H     -2.722937   -0.675944    0.203055
H     -1.277699   -1.164155    1.150336
H     -0.571749    1.245633    1.307474
H     -2.238853    1.002098    1.946236
H     -2.006434    1.727831    0.311290
21

C      2.371485    0.002060    0.699140
C      1.398945    0.021911   -0.478080
C      0.116251   -0.779819   -0.170487
C     -0.798064   -0.938868   -1.385980
C     -1.948716   -0.301193   -0.617368
C     -1.036474   -0.093263    0.592013
C     -0.887499    1.389327    0.965229
H      3.274109    0.596388    0.444356
H      2.686174   -1.040581    0.917941
H      1.909286    0.434627    1.608283
H      1.178087    1.067221   -0.773842
H      1.910595   -0.454265   -1.342688
H      0.352408   -1.776613    0.266847
H     -0.494492   -0.325060   -2.263150
H     -0.993876   -2.004346   -1.637109
H     -2.766758   -1.024990   -0.408491
H     -2.303909    0.638632   -1.095596
H     -1.365990   -0.700312    1.464546
H     -1.842778    1.748949    1.402160
H     -0.661223    2.021519    0.081554
H     -0.097561    1.518675    1.730722
21

C      2.394904   -0.060371    0.706254
C      1.453210   -0.813463   -0.229472
C      0.224098    0.039373   -0.588625
C     -0.788312   -0.701955   -1.463063
C     -1.830810   -0.598068   -0.355960
C     -0.822131    0.131134    0.530412
C     -1.229045    1.568559    0.865863
H      2.738981    0.882250    0.229750
H      3.281690   -0.691001    0.926992
H      1.883907    0.178949    1.662677
H      1.143781   -1.768269    0.250403
H      2.004057   -1.061134   -1.162501
H      0.502598    1.022849   -1.031739
H     -1.073615   -0.118706   -2.365823
H     -0.513445   -1.756925   -1.685809
H     -2.110125   -1.593349    0.053772
H     -2.706246    0.019761   -0.655832
H     -0.567097   -0.456841    1.440586
H     -2.099693    1.557664    1.554673
H     -1.502521    2.134730   -0.050835
H     -0.384184    2.084813    1.368278
19

C      2.265339   -0.302364    1.191114
C      1.425918   -0.726806    0.243450
C      0.594135    0.254099   -0.552937
C     -0.263286   -0.402208   -1.636852
C     -1.526179    0.140344   -0.978056
C     -0.683729    0.784145    0.123166
C     -1.012639    0.240568    1.521494
H      2.357290    0.754906    1.421120
H      2.865369   -1.016493    1.745538
H      1.371373   -1.790950    0.032773
H      1.214081    1.076501   -0.975829
H     -0.088641    0.041263   -2.641584
H     -0.240528   -1.514331   -1.637088
H     -2.198736   -0.672592   -0.624519
H     -2.041164    0.895272   -1.611686
H     -0.737950    1.895069    0.089227
H     -0.287238    0.640686    2.260118
H     -0.983389   -0.870128    1.543540
H     -2.030027    0.573016    1.816620
19

C      2.621395   -0.111348    0.545159
C      1.662922   -0.752771   -0.127709
C      0.389337   -0.045256   -0.521638
C     -0.652127   -0.960035   -1.169377
C     -1.600672   -0.716557   -0.001241
C     -0.560501    0.187352    0.659373
C     -1.014824    1.643122    0.797134
H      2.499921    0.928957    0.832223
H      3.536392   -0.628934    0.814164
H      1.823500   -1.790413   -0.405833
H      0.583511    0.862175   -1.137468
H     -1.044763   -0.542036   -2.122108
H     -0.350440   -2.027778   -1.248297
H     -1.790308   -1.640945    0.587038
H     -2.530461   -0.191176   -0.313566
H     -0.195618   -0.233102    1.624014
H     -0.159931    2.267985    1.130903
H     -1.394874    2.040160   -0.169110
H     -1.822462    1.710601    1.555949
17

C      2.318762   -0.765978   -1.449169
C      1.642938   -0.422390   -0.511682
C      0.818042   -0.001590    0.637416
C      0.407865    1.468145    0.562015
C     -1.062475    1.064372    0.530368
C     -0.664496   -0.410259    0.596371
C     -1.133677   -1.219328   -0.622411
H      2.911332   -1.067634   -2.272352
H      1.299400   -0.254777    1.607343
H      0.671399    2.028582    1.485613
H      0.720027    1.984722   -0.373532
H     -1.559931    1.361844   -0.419402
H     -1.610738    1.395584    1.439371
H     -0.986458   -0.881833    1.551567
H     -2.236497   -1.341064   -0.582419
H     -0.868562   -0.711867   -1.574915
H     -0.666932   -2.226529   -0.604182
17

C      2.894301   -1.224097   -0.101005
C      1.818390   -0.787259    0.223045
C      0.503937   -0.254489    0.619252
C      0.474376    1.272302    0.668564
C     -0.532392    1.294803   -0.476233
C     -0.501032   -0.232493   -0.536785
C     -1.842801   -0.883061   -0.187817
H      3.838707   -1.607389   -0.385691
H      0.123288   -0.721567    1.554626
H      0.038873    1.653831    1.617945
H      1.436161    1.761463    0.394370
H     -0.114640    1.761721   -1.394924
H     -1.513395    1.720668   -0.169013
H     -0.092518   -0.604445   -1.504257
H     -2.246193   -0.487162    0.769444
H     -2.575679   -0.681543   -0.997127
H     -1.709382   -1.981284   -0.094394
21

C     -1.621175    1.139485   -1.858329
C     -1.714342    0.463451   -0.495418
C     -0.935298   -0.862631   -0.497925
C     -0.563309   -1.378033    0.888854
C      0.532471   -0.901551   -0.060858
C      1.230625    0.412352    0.333795
C      2.635627    0.127493    0.851428
H     -2.031165    0.473265   -2.647227
H     -0.565492    1.382805   -2.099895
H     -2.209479    2.081137   -1.847900
H     -1.374967    1.170008    0.288538
H     -2.781606    0.236272   -0.287208
H     -1.253208   -1.665985   -1.196943
H     -0.806463   -0.702102    1.736831
H     -0.620354   -2.482204    0.991436
H      1.124165   -1.707893   -0.545878
H      1.309116    1.063773   -0.561651
H      0.682435    0.965788    1.125062
H      2.588236   -0.524989    1.749411
H      3.242872   -0.371918    0.066425
H      3.131312    1.081477    1.129643
21

C     -2.758763    0.394266   -0.786916
C     -1.937765   -0.822263   -0.376874
C     -0.718368   -0.389675    0.446264
C      0.429103   -1.394367    0.463584
C      0.549308   -0.112422   -0.354573
C      1.458374    0.969509    0.240797
C      2.892484    0.784742   -0.240513
H     -3.646828    0.066167   -1.367109
H     -2.148864    1.072488   -1.421216
H     -3.105142    0.946707    0.112639
H     -1.643587   -1.383881   -1.291284
H     -2.568243   -1.490735    0.247242
H     -0.860902    0.167553    1.397811
H      1.004649   -1.413469    1.413655
H      0.283565   -2.308728   -0.150416
H      0.478644   -0.233650   -1.457502
H      1.445521    0.956857    1.353317
H      1.090269    1.962841   -0.093293
H      3.533756    1.586080    0.183229
H      3.285284   -0.199607    0.092497
H      2.937506    0.841587   -1.349148
19

C      2.887096    0.595354   -0.215012
C      1.731346    0.135879   -0.699325
C      0.988123   -0.976531   -0.008936
C      0.366343   -0.577734    1.327444
C     -0.531307   -0.853156    0.127612
C     -1.223842    0.385507   -0.467199
C     -2.616429    0.551839    0.129150
H      3.302775    0.197753    0.706056
H      3.424475    1.377149   -0.741752
H      1.355323    0.529698   -1.638641
H      1.408276   -2.004602   -0.022719
H      0.478229    0.490653    1.614750
H      0.364189   -1.388540    2.086033
H     -1.073898   -1.822541    0.156393
H     -0.648519    1.319464   -0.285240
H     -1.317430    0.246318   -1.565239
H     -3.109925    1.440199   -0.318438
H     -3.237159   -0.344678   -0.083635
H     -2.547666    0.697966    1.228307
19

C      2.861757   -0.914981    0.499342
C      2.235139   -0.291039   -0.499858
C      1.030251    0.564635   -0.236045
C     -0.022980    0.534360   -1.338007
C     -0.260917   -0.220899   -0.035877
C     -1.263691    0.425089    0.928081
C     -2.677336   -0.061088    0.631707
H      3.742713   -1.515515    0.297567
H      2.501137   -0.833016    1.520459
H      2.626054   -0.373912   -1.509790
H      1.135091    1.523083    0.316740
H     -0.587833    1.483903   -1.453945
H      0.199317   -0.125355   -2.204211
H     -0.187040   -1.328724   -0.103181
H     -0.992341    0.135823    1.965628
H     -1.242456    1.535869    0.866514
H     -2.974397    0.227702   -0.399065
H     -2.734512   -1.165902    0.733935
H     -3.387956    0.399968    1.349615
17

C      2.885959    1.036156    0.597839
C      2.150794    0.215918    0.107599
C      1.255886   -0.786309   -0.493164
C      0.403905   -1.533620    0.526756
C     -0.250074   -0.530499   -0.417028
C     -0.736169    0.773898    0.240028
C     -2.216016    0.671742    0.589305
H      3.530642    1.756399    1.028479
H      1.617885   -1.406334   -1.340077
H      0.508679   -1.206103    1.584538
H      0.204951   -2.593428    0.261869
H     -0.835983   -0.975447   -1.249956
H     -0.592719    1.608148   -0.479216
H     -0.171382    1.016653    1.166445
H     -2.556768    1.622775    1.050225
H     -2.382758   -0.155033    1.312411
H     -2.816830    0.485085   -0.326379
17

C      3.622220    0.418461    0.066649
C      2.492523    0.100678   -0.209391
C      1.116758   -0.285932   -0.547089
C      0.492751   -1.263866    0.440968
C      0.070487    0.200914    0.446673
C     -1.306932    0.491739   -0.161963
C     -2.393714    0.382272    0.900910
H      4.613803    0.697407    0.309259
H      0.816269   -0.412987   -1.609077
H     -0.232862   -1.971360   -0.014277
H      1.126265   -1.551466    1.308058
H      0.437793    0.803344    1.306838
H     -1.546546   -0.202616   -0.997776
H     -1.302300    1.525461   -0.568374
H     -2.200851    1.101795    1.725178
H     -2.424544   -0.648620    1.313766
H     -3.381119    0.614775    0.449322
17

C      1.291758    1.706523   -0.503964
C      0.584353    0.682148   -0.983294
C      0.755036   -0.700603   -0.411432
C     -0.423159   -1.634579   -0.662975
C     -0.164236   -1.103476    0.742233
C     -1.168270   -0.085930    1.216233
C     -0.861349    0.763663    2.197823
H      1.995076    1.564620    0.311228
H      1.165745    2.698468   -0.925314
H     -0.109913    0.852709   -1.801183
H      1.751093   -1.191333   -0.442237
H     -1.290430   -1.189940   -1.198831
H     -0.133896   -2.697412   -0.803684
H      0.239458   -1.853768    1.454954
H     -2.157029   -0.045006    0.768237
H     -1.592718    1.490303    2.536195
H      0.118480    0.743612    2.665684
17

C      2.903477    0.200097    0.193785
C      1.697208    0.296824    0.756104
C      0.449676    0.184328   -0.071479
C      0.085384   -1.244489   -0.456212
C     -0.710656   -0.519893    0.620881
C     -2.064510   -0.041344    0.183615
C     -2.573234    1.096787    0.659256
H      3.008533    0.016457   -0.871370
H      3.796273    0.303713    0.801763
H      1.618794    0.501107    1.819907
H      0.213749    0.953447   -0.838894
H     -0.409224   -1.332115   -1.447586
H      0.758173   -2.036901   -0.062718
H     -0.547465   -0.863973    1.665286
H     -2.655023   -0.646084   -0.498479
H     -3.560962    1.421937    0.349237
H     -2.010192    1.710103    1.356578
15

C      2.356272    1.414886    0.745073
C      1.827896    0.417926    0.320256
C      1.184855   -0.800617   -0.198826
C      0.033872   -1.288711    0.669298
C     -0.255407   -0.683653   -0.700658
C     -0.916136    0.669162   -0.643979
C     -2.189206    0.796694   -0.263939
H      2.819440    2.290253    1.117956
H      1.808047   -1.605327   -0.642252
H     -0.222423   -0.648489    1.543022
H     -0.069201   -2.393849    0.704723
H     -0.581115   -1.421988   -1.463783
H     -0.369443    1.547960   -0.972329
H     -2.658481    1.775035   -0.255851
H     -2.768971   -0.069282    0.041288
15

C      3.298039    0.528488    0.689152
C      2.265776    0.135386    0.206117
C      1.009301   -0.343376   -0.383626
C      0.093696   -1.049498    0.606015
C     -0.231094    0.365424    0.141216
C     -1.367456    0.442216   -0.836904
C     -2.633378    0.350448   -0.424950
H      4.204021    0.873621    1.113401
H      0.990901   -0.734465   -1.423604
H      0.462430   -1.107237    1.653297
H     -0.520927   -1.858146    0.154466
H     -0.098853    1.156808    0.911165
H     -1.159484    0.615568   -1.888725
H     -3.444829    0.427661   -1.141219
H     -2.868144    0.197101    0.624198
13

C     -1.638204    1.879917    0.444713
C     -1.337260    0.766851    0.092430
C     -0.971402   -0.593306   -0.338837
C     -0.111095   -1.339548    0.672577
C      0.502627   -0.866029   -0.638563
C      1.448087    0.251504   -0.473937
C      2.222898    1.165519   -0.340407
H     -1.901672    2.857033    0.754030
H     -1.716192   -1.220604   -0.872154
H      0.179879   -0.764880    1.580684
H     -0.305463   -2.432242    0.710907
H      0.725300   -1.672338   -1.368579
H      2.902497    1.968123   -0.222864
13

C     -2.858146    1.118101   -0.234517
C     -1.800869    0.660691    0.120967
C     -0.513253    0.104445    0.555349
C     -0.175946   -1.237296   -0.080583
C      0.532057    0.027570   -0.546803
C      1.915427    0.144612   -0.068579
C      3.051531    0.241457    0.322995
H     -3.786202    1.519496   -0.546761
H     -0.165714    0.245686    1.601690
H      0.416986   -1.911330    0.575359
H     -0.920947   -1.631151   -0.805856
H      0.256351    0.391467   -1.560274
H      4.048725    0.326252    0.667011
21

C      2.681876   -0.349563   -0.023978
C      1.491886   -0.142988   -0.959560
C      0.249323    0.374031   -0.208845
C     -0.896164    0.701471   -1.158023
C     -2.159788    0.597990   -0.316014
C     -1.825213   -0.310904    0.865948
C     -0.340133   -0.643940    0.764291
H      3.566438   -0.668294   -0.614612
H      2.929228    0.597054    0.501897
H      2.457322   -1.138328    0.724463
H      1.262332   -1.100649   -1.476357
H      1.782041    0.600344   -1.733939
H      0.513610    1.299781    0.352403
H     -0.946182   -0.045109   -1.982446
H     -0.782014    1.718096   -1.593513
H     -2.999987    0.184026   -0.915147
H     -2.446135    1.607113    0.054432
H     -2.434553   -1.240547    0.832612
H     -2.033288    0.217736    1.822204
H      0.153623   -0.579785    1.758383
H     -0.224227   -1.677535    0.367990
19

C      2.877943   -0.690303    0.192765
C      1.776057   -0.231645   -0.407721
C      0.443972   -0.180947    0.300975
C     -0.618661   -0.991804   -0.427413
C     -1.947921   -0.347235   -0.052667
C     -1.630556    1.064062    0.442910
C     -0.118449    1.232605    0.353672
H      3.819293   -0.712604   -0.346575
H      2.853972   -1.045109    1.218512
H      1.843566    0.114151   -1.435696
H      0.531508   -0.566651    1.343340
H     -0.479984   -0.923219   -1.530263
H     -0.587049   -2.060839   -0.123398
H     -2.629405   -0.316657   -0.930787
H     -2.435557   -0.931817    0.758407
H     -2.146909    1.828999   -0.177332
H     -1.961313    1.177047    1.498940
H      0.130367    1.791000   -0.577187
H      0.279125    1.790967    1.229131
17

C      2.907990    0.191763    0.117988
C      1.801156   -0.248612    0.304161
C      0.446873   -0.786729    0.531509
C     -0.262255   -1.046262   -0.792281
C     -0.993388    0.245803   -1.141024
C     -1.099284    1.057542    0.149531
C     -0.429458    0.235474    1.245500
H      3.879282    0.578589   -0.045625
H      0.529159   -1.722162    1.126635
H     -1.007848   -1.859924   -0.649790
H      0.436673   -1.352240   -1.602624
H     -0.410944    0.815022   -1.898666
H     -2.001009    0.025212   -1.556257
H     -0.569200    2.028102    0.029963
H     -2.162057    1.259724    0.406459
H     -1.211104   -0.301797    1.827417
H      0.145413    0.880495    1.947106
19

C      2.632413   -0.310368   -0.587165
C      1.685791    0.287346    0.411455
C      0.350983    0.159898    0.310652
C     -0.354317   -0.575254   -0.779332
C     -1.818086   -0.568666   -0.354052
C     -1.968676    0.544305    0.683847
C     -0.589286    0.762386    1.294583
H      2.524607   -1.415240   -0.600614
H      3.677018   -0.058940   -0.308317
H      2.426064    0.097151   -1.599203
H      2.103890    0.848031    1.243093
H     -0.223685   -0.035965   -1.742427
H      0.019800   -1.618061   -0.868925
H     -2.489650   -0.401074   -1.223893
H     -2.072526   -1.544821    0.115262
H     -2.301078    1.476900    0.176279
H     -2.714863    0.271330    1.461263
H     -0.502030    0.233714    2.268488
H     -0.386369    1.847326    1.428618
19

C      2.419916   -0.556165    0.159694
C      1.339180    0.508071    0.345061
C      0.027608    0.129974   -0.370667
C     -0.680929   -1.084161    0.258704
C     -2.111393   -0.684945    0.302692
C     -2.286206    0.586579   -0.012510
C     -1.004801    1.270273   -0.326651
H      3.354972   -0.225255    0.658730
H      2.102822   -1.519591    0.611188
H      2.629926   -0.708960   -0.920285
H      1.154775    0.660607    1.431152
H      1.718601    1.465459   -0.074348
H      0.246987   -0.097417   -1.439179
H     -0.550734   -1.992696   -0.367471
H     -0.332732   -1.285482    1.294981
H     -2.919186   -1.343005    0.605700
H     -3.252436    1.080035    0.004672
H     -1.072554    1.788582   -1.307195
H     -0.783815    2.008096    0.475344
17

C      2.693993   -0.310447   -0.307308
C      1.552359    0.002517    0.312303
C      0.209059   -0.149398   -0.361890
C     -0.545340    1.189041   -0.434868
C     -1.915763    0.859378    0.035678
C     -2.005957   -0.376950    0.493963
C     -0.712660   -1.104515    0.415314
H      3.641020   -0.188436    0.208224
H      2.697116   -0.687979   -1.325171
H      1.592812    0.377351    1.331465
H      0.331046   -0.542280   -1.397769
H     -0.579084    1.572411   -1.477308
H     -0.108709    1.962454    0.234604
H     -2.743259    1.561259    0.041375
H     -2.915092   -0.794148    0.914483
H     -0.844377   -2.064112   -0.129311
H     -0.347162   -1.306145    1.446218
15

C      2.819284   -0.919734   -0.248137
C      1.649797   -0.675269   -0.409902
C      0.221534   -0.377004   -0.608028
C     -0.649830   -0.978407    0.506315
C     -1.559377    0.132154    0.891483
C     -1.239686    1.271230    0.301686
C     -0.056810    1.134563   -0.587754
H      3.845760   -1.134196   -0.105943
H     -0.096165   -0.795625   -1.588712
H     -1.237419   -1.843522    0.130740
H     -0.055854   -1.284544    1.395905
H     -2.370638    0.035437    1.605578
H     -1.761656    2.205275    0.482065
H      0.787240    1.719457   -0.159530
H     -0.296179    1.510186   -1.605767
19

C      2.494476   -0.333153   -0.074868
C      1.330462    0.590144   -0.431740
C      0.096266    0.323752    0.449307
C     -0.972499    1.328012    0.183332
C     -2.141038    0.765401   -0.069514
C     -2.074248   -0.717709   -0.033107
C     -0.586162   -1.027056    0.154528
H      3.372212   -0.084057   -0.707654
H      2.777853   -0.201772    0.991106
H      2.223189   -1.394769   -0.252972
H      1.073183    0.463094   -1.506505
H      1.665514    1.640464   -0.284534
H      0.373949    0.386661    1.525012
H     -0.829924    2.402552    0.242042
H     -3.050342    1.329808   -0.248351
H     -2.458236   -1.144659   -0.984367
H     -2.669369   -1.097890    0.824808
H     -0.190773   -1.493739   -0.774808
H     -0.434511   -1.735084    0.998285
17

C      1.834555    0.944454   -0.626260
C      1.777952   -0.144900    0.149971
C      0.488036   -0.656886    0.749625
C     -0.172399    0.383118    1.587941
C     -1.376283    0.696416    1.141416
C     -1.744024   -0.063026   -0.082394
C     -0.568195   -1.019032   -0.311768
H      2.785651    1.271828   -1.033170
H      0.939876    1.513010   -0.860625
H      2.696446   -0.685204    0.359201
H      0.707640   -1.544063    1.383009
H      0.277172    0.838239    2.464820
H     -2.011639    1.441578    1.608687
H     -1.857647    0.637370   -0.937489
H     -2.690092   -0.621883    0.082296
H     -0.904429   -2.069135   -0.164732
H     -0.182622   -0.921884   -1.350853
15

C      2.824614    0.860172   -0.318733
C      1.809453    0.390315    0.131339
C      0.572013   -0.183522    0.680539
C     -0.430236    0.891839    0.906108
C     -1.518630    0.727666    0.174625
C     -1.447088   -0.482446   -0.684179
C     -0.110634   -1.136293   -0.316480
H      3.715446    1.272596   -0.713942
H      0.793128   -0.702270    1.638015
H     -0.291147    1.723486    1.589990
H     -2.359422    1.413356    0.191357
H     -2.299859   -1.159869   -0.464023
H     -1.462153   -0.184252   -1.754473
H     -0.295182   -2.119009    0.170865
H      0.499697   -1.311771   -1.231009
17

C      2.510050   -0.312119   -0.251124
C      1.401311   -0.342665    0.754061
C      0.128907   -0.097994    0.422315
C     -0.973504   -0.117018    1.361548
C     -2.097705    0.162478    0.732212
C     -1.889337    0.407687   -0.728291
C     -0.378677    0.231820   -0.943045
H      2.580586    0.696536   -0.709969
H      3.473870   -0.544164    0.248305
H      2.327753   -1.069335   -1.042510
H      1.647394   -0.571912    1.784264
H     -0.900243   -0.327037    2.421056
H     -3.060570    0.207761    1.223877
H     -2.464808   -0.333522   -1.323285
H     -2.211060    1.438615   -0.989553
H     -0.174263   -0.603465   -1.647335
H      0.080297    1.174335   -1.312526
17

C      2.607043    0.160615   -0.182299
C      1.415000   -0.720822    0.026337
C      0.162208   -0.251039    0.029127
C     -0.235398    1.132808   -0.161445
C     -1.548618    1.227855   -0.096895
C     -2.206185   -0.092717    0.147573
C     -1.047449   -1.097182    0.233365
H      2.654236    0.931665    0.615423
H      2.546135    0.654008   -1.175255
H      3.534054   -0.448824   -0.143762
H      1.580823   -1.780401    0.180623
H      0.427378    1.971412   -0.331492
H     -2.084770    2.161039   -0.209222
H     -2.885549   -0.340208   -0.696096
H     -2.777089   -0.061661    1.100289
H     -1.125285   -1.862925   -0.568746
H     -1.016534   -1.583624    1.232475
17

C      2.299223   -0.429123   -0.035074
C      1.149208    0.571665    0.064506
C     -0.144087    0.025676   -0.561898
C     -0.767673   -1.055974    0.268909
C     -1.972597   -0.692552    0.675390
C     -2.261335    0.634982    0.167968
C     -1.227885    1.058971   -0.540149
H      2.481694   -0.704012   -1.095752
H      3.223963    0.027486    0.376387
H      2.071889   -1.345613    0.548527
H      0.981500    0.833706    1.132915
H      1.449078    1.498761   -0.471560
H      0.024401   -0.325946   -1.602961
H     -0.315494   -2.012312    0.496524
H     -2.632862   -1.297778    1.282058
H     -3.173140    1.193302    0.332841
H     -1.185884    2.018761   -1.038631
19

C      2.458646   -0.048388   -0.705215
C      1.679830    0.200142    0.582903
C      0.201402    0.024340    0.366061
C     -0.378586   -1.145177    0.139435
C     -1.851769   -1.022933   -0.004571
C     -2.130006    0.477311    0.137845
C     -0.780589    1.140210    0.431916
H      2.316592   -1.094782   -1.049784
H      3.540938    0.119764   -0.522967
H      2.118699    0.649275   -1.500349
H      2.026912   -0.501036    1.372217
H      1.884218    1.235958    0.929960
H      0.159340   -2.086220    0.078651
H     -2.169676   -1.396207   -1.001621
H     -2.358255   -1.599659    0.798819
H     -2.558251    0.879877   -0.806342
H     -2.846396    0.664746    0.967443
H     -0.774306    1.592401    1.447156
H     -0.538742    1.910379   -0.331945
17

C      2.407231   -1.385694   -0.099963
C      1.939562   -0.235089    0.380400
C      0.504268    0.111339    0.360857
C      0.040237    1.251162    0.836626
C     -1.431846    1.365802    0.703706
C     -1.861402    0.056880    0.035305
C     -0.580178   -0.753297   -0.182224
H      1.752058   -2.130452   -0.532375
H      3.468826   -1.592725   -0.062427
H      2.643853    0.472651    0.801681
H      0.663206    2.020234    1.276357
H     -1.688297    2.241093    0.069098
H     -1.896084    1.472606    1.707552
H     -2.566302   -0.500096    0.690858
H     -2.359855    0.263504   -0.937170
H     -0.621653   -1.713666    0.375889
H     -0.413623   -0.944250   -1.264497
15

C      3.260505    0.335486    0.715846
C      2.083414    0.243094    0.472802
C      0.678991    0.131853    0.182281
C     -0.206451    1.044121    0.525403
C     -1.579143    0.675535    0.102236
C     -1.416210   -0.679397   -0.596827
C      0.076644   -1.018716   -0.533137
H      4.293867    0.416596    0.929213
H      0.038203    1.956920    1.054630
H     -2.239882    0.589069    0.991377
H     -1.978575    1.440410   -0.597797
H     -1.754077   -0.613064   -1.654296
H     -2.013716   -1.458976   -0.075257
H      0.508978   -1.105435   -1.553493
H      0.247452   -1.957494    0.037020
17

C      2.252744    0.525993    0.384249
C      1.362444   -0.098265   -0.685826
C     -0.081242   -0.061165   -0.278535
C     -0.810930    1.041805   -0.185124
C     -2.157875    0.674815    0.209936
C     -2.225600   -0.639911    0.343475
C     -0.904674   -1.266991    0.040573
H      1.996179    1.597349    0.526793
H      3.315420    0.455872    0.070169
H      2.130064   -0.012417    1.348427
H      1.675907   -1.152852   -0.842371
H      1.492241    0.446064   -1.645940
H     -0.458715    2.046887   -0.377833
H     -2.980576    1.358842    0.369892
H     -3.119695   -1.177721    0.629917
H     -0.980861   -1.941266   -0.838501
H     -0.504831   -1.797040    0.930700
17

C     -2.254831   -0.466362    0.517260
C     -1.412648   -0.303685   -0.743110
C      0.010020    0.013026   -0.393030
C      0.957446   -0.883098   -0.159495
C      2.224756   -0.198746    0.234903
C      1.808534    1.236376    0.200404
C      0.539322    1.344081   -0.155905
H     -3.304421   -0.694669    0.236078
H     -2.241819    0.471337    1.113213
H     -1.862979   -1.300785    1.137530
H     -1.456637   -1.239886   -1.341024
H     -1.832099    0.518581   -1.361657
H      0.823320   -1.954964   -0.229570
H      3.028246   -0.396238   -0.505444
H      2.531338   -0.496039    1.259762
H      2.447647    2.076466    0.438009
H     -0.005194    2.274607   -0.247923
21

C      2.073555    1.087182   -0.142910
C      1.082671    0.145651   -0.832174
C      0.320579   -0.748864    0.177930
C     -0.180619   -2.029630   -0.505925
C     -0.838385   -0.079340    0.974556
C     -2.051125    0.339554    0.147828
C     -1.185791    1.399545    0.804114
H      2.880786    0.499133    0.343392
H      1.577698    1.709532    0.628568
H      2.534267    1.758121   -0.898142
H      0.381814    0.718387   -1.473668
H      1.676884   -0.495703   -1.519816
H      1.057737   -1.085649    0.940377
H     -0.851028   -1.789566   -1.357798
H      0.678498   -2.620144   -0.890296
H     -0.733014   -2.664113    0.220093
H     -1.124011   -0.531214    1.948824
H     -1.945891    0.311903   -0.957121
H     -3.030954    0.191637    0.649462
H     -1.673356    1.866969    1.685468
H     -0.650314    2.016609    0.057238
19

C      1.992915    1.120336   -1.014170
C      1.492373   -0.111958   -1.162466
C      0.381791   -0.646923   -0.289119
C      0.884034   -0.809464    1.155866
C     -0.889679    0.227620   -0.469538
C     -1.608388    0.832780    0.735023
C     -2.162396   -0.415121    0.070798
H      2.789370    1.464513   -1.665735
H      1.611643    1.791880   -0.251095
H      1.895711   -0.749466   -1.944070
H      0.140297   -1.664888   -0.667597
H      1.121343    0.176022    1.609893
H      1.805167   -1.430952    1.168175
H      0.125459   -1.328934    1.777610
H     -1.064465    0.722176   -1.450085
H     -1.210326    0.643631    1.751430
H     -2.196354    1.746976    0.508234
H     -3.072438   -0.229841   -0.538528
H     -2.036058   -1.338385    0.675375
17

C      2.757890    1.198690    0.945947
C      1.848459    0.654997    0.370297
C      0.740133   -0.007533   -0.332305
C      0.734872   -1.496517    0.041323
C     -0.569506    0.764530   -0.025570
C     -1.718936    0.408919   -0.962913
C     -1.808043    0.045512    0.508017
H      3.555921    1.675788    1.451287
H      0.948828    0.075921   -1.421065
H     -0.025962   -2.045248   -0.552019
H      0.530963   -1.631122    1.125657
H      1.722900   -1.950909   -0.189064
H     -0.517353    1.860988    0.154977
H     -2.366939    1.263767   -1.251322
H     -1.564943   -0.465571   -1.630659
H     -1.761463   -1.046277    0.690142
H     -2.506820    0.694065    1.077271
19

C      0.574798    0.240895    1.704323
C      0.228770    0.065049    0.419465
C      1.239700   -0.458195   -0.575757
C      2.344466    0.562796   -0.837493
C     -1.150397    0.466849   -0.047645
C     -1.940441   -0.623875   -0.759899
C     -2.303994   -0.234288    0.660136
H      1.566817   -0.025440    2.056226
H     -0.131648    0.650365    2.420196
H      1.684464   -1.403475   -0.196001
H      0.744079   -0.685689   -1.543709
H      1.907685    1.513020   -1.212648
H      2.919637    0.764699    0.090717
H      3.042741    0.165563   -1.604023
H     -1.349622    1.510672   -0.370107
H     -1.458339   -1.622632   -0.831588
H     -2.656206   -0.252363   -1.523221
H     -2.028532   -1.001768    1.415444
H     -3.233979    0.367815    0.735584
17

C      1.968768    1.147565    0.907960
C      1.533105   -0.092498    1.129294
C      0.435383   -0.720138    0.353395
C      0.250473   -2.040553    0.446441
C     -0.406626    0.081671   -0.612632
C     -1.219669    1.201178    0.026430
C     -1.916723   -0.058313   -0.449301
H      1.544581    1.774449    0.135283
H      2.780629    1.546017    1.502436
H      2.027830   -0.672146    1.900341
H     -0.510232   -2.539406   -0.141282
H      0.860789   -2.647112    1.104480
H     -0.041450    0.278601   -1.642800
H     -1.154363    1.285354    1.132855
H     -1.383840    2.082288   -0.629104
H     -2.271044   -0.705737    0.381529
H     -2.497612    0.078781   -1.385651
15

C      2.782135   -0.650786   -0.740892
C      1.785478   -0.073890   -0.384115
C      0.592248    0.614068    0.042012
C      0.692419    1.670855    0.848451
C     -0.743940    0.206810   -0.516230
C     -1.074811   -1.277354   -0.425327
C     -1.735417   -0.295944    0.525507
H      3.656876   -1.157406   -1.054043
H      1.655007    1.996017    1.225074
H     -0.189048    2.226265    1.144389
H     -1.195377    0.772300   -1.358908
H     -0.315883   -1.926057    0.062725
H     -1.748204   -1.648754   -1.226312
H     -1.361138   -0.366630    1.569879
H     -2.800344   -0.089494    0.287790
19

C      2.317979   -1.248877    0.138721
C      1.110569   -0.671614   -0.542764
C      0.298518    0.238694    0.034636
C      0.590869    0.799660    1.404990
C     -0.875009    0.779453   -0.748106
C     -2.221245    0.716438   -0.037532
C     -1.910266   -0.263451   -1.152799
H      2.018831   -1.761436    1.076985
H      3.050006   -0.446092    0.366359
H      2.804279   -1.990076   -0.529447
H      0.888171   -1.020796   -1.547951
H     -0.140747    1.589610    1.675978
H      0.532254   -0.007990    2.164397
H      1.603508    1.254271    1.424126
H     -0.731659    1.610999   -1.470128
H     -2.229018    0.249717    0.971037
H     -2.934319    1.516157   -0.328886
H     -2.440346   -0.043570   -2.103476
H     -1.732377   -1.301098   -0.796142
19

C      1.971581   -0.332388   -1.217891
C      1.216000    0.821506   -0.622736
C      0.186391    0.672733    0.237345
C     -0.417054    1.905763    0.858714
C     -0.280458   -0.697725    0.684199
C     -1.789440   -0.905637    0.753749
C     -0.998250   -1.503202   -0.392394
H      2.820775    0.050903   -1.821347
H      2.375033   -0.982421   -0.413172
H      1.310282   -0.924534   -1.883013
H      1.548514    1.823143   -0.884123
H     -1.142587    1.642832    1.656501
H      0.380087    2.529055    1.317194
H     -0.940700    2.498741    0.079604
H      0.339784   -1.298762    1.382438
H     -2.431687   -0.054984    0.440302
H     -2.119687   -1.653810    1.504808
H     -1.169523   -0.988869   -1.362850
H     -0.859061   -2.602346   -0.317329
21

C      2.709824    0.677760   -0.203516
C      2.130040   -0.725343   -0.381139
C      0.623962   -0.712185   -0.684726
C     -0.220210   -0.312063    0.531980
C     -1.714003   -0.453195    0.209950
C     -2.377735    0.778324   -0.387653
C     -2.640414    0.400413    1.062438
H      3.814061    0.610643   -0.108064
H      2.469770    1.312310   -1.083005
H      2.313203    1.154433    0.716488
H      2.332503   -1.330718    0.529042
H      2.654612   -1.212518   -1.231548
H      0.329280   -1.736174   -1.003960
H      0.415705   -0.022634   -1.532256
H      0.027413    0.727778    0.836915
H      0.014476   -0.985471    1.384102
H     -2.132375   -1.433452   -0.104393
H     -1.729362    1.671910   -0.513278
H     -3.223657    0.556538   -1.071947
H     -3.644797   -0.040541    1.235589
H     -2.152295    1.074185    1.798978
19

C      3.157193   -0.502057   -0.072533
C      2.282336    0.292212   -0.696625
C      1.016277    0.754370   -0.029192
C      0.016254   -0.395578    0.123553
C     -1.272402    0.106486    0.787595
C     -2.350404    0.609092   -0.160815
C     -2.505442   -0.742707    0.519578
H      4.068884   -0.806700   -0.575977
H      2.974275   -0.848925    0.939951
H      2.505551    0.638760   -1.701408
H      1.257298    1.189649    0.965602
H      0.559296    1.553184   -0.652935
H     -0.185515   -0.844039   -0.875403
H      0.451725   -1.186039    0.771647
H     -1.239851    0.586630    1.789190
H     -2.116685    0.546951   -1.245324
H     -2.999115    1.404439    0.262968
H     -2.369055   -1.608710   -0.163203
H     -3.250619   -0.747017    1.342941
17

C      3.244085    0.567317   -0.415526
C      2.333167   -0.211794   -0.286960
C      1.222534   -1.160795   -0.130947
C      0.047177   -0.529819    0.621658
C     -0.610395    0.590037   -0.201344
C     -2.065516    0.870126    0.141880
C     -1.714126    0.148696   -1.150515
H      4.043398    1.251605   -0.528322
H      1.590217   -2.040113    0.438998
H      0.892963   -1.509358   -1.132993
H      0.402828   -0.105649    1.585817
H     -0.683473   -1.332878    0.865568
H     -0.023739    1.480051   -0.514989
H     -2.526174    0.215117    0.912220
H     -2.379596    1.925073   -0.005283
H     -1.814465    0.777481   -2.060215
H     -1.958884   -0.935098   -1.146226
19

C      3.140600    0.608933    0.339277
C      1.857014   -0.161522    0.344660
C      0.949865    0.002689   -0.628494
C     -0.337105   -0.772451   -0.643819
C     -1.246275   -0.330033    0.510899
C     -2.155208    0.853231    0.214727
C     -2.733416   -0.552370    0.281704
H      2.928522    1.698317    0.378299
H      3.748857    0.329697    1.224868
H      3.717951    0.377135   -0.580602
H      1.668189   -0.861855    1.153859
H      1.151656    0.692016   -1.444290
H     -0.829465   -0.623806   -1.630192
H     -0.118878   -1.856886   -0.539963
H     -0.912051   -0.435091    1.565441
H     -2.095877    1.270812   -0.813255
H     -2.392672    1.481385    1.099070
H     -3.024179   -0.967302   -0.707204
H     -3.317528   -0.752900    1.204626
19

C      2.565800   -0.422816    0.467126
C      2.005073    0.953655    0.254220
C      0.821609    1.195389   -0.337014
C     -0.113682    0.123397   -0.831496
C     -0.960432   -0.421427    0.326528
C     -2.262520    0.318864    0.593918
C     -2.286697   -1.041974   -0.085494
H      1.891615   -1.021478    1.112382
H      3.553261   -0.346945    0.968467
H      2.707130   -0.934543   -0.507667
H      2.600734    1.801301    0.580563
H      0.517494    2.229536   -0.471403
H     -0.755189    0.562741   -1.627000
H      0.452433   -0.707913   -1.301008
H     -0.481314   -0.889029    1.212172
H     -2.492352    1.168438   -0.084299
H     -2.591938    0.299161    1.654178
H     -2.635108   -1.865509    0.573019
H     -2.535918   -1.000848   -1.167583
17

C      3.418784    0.256622   -0.723589
C      2.160441    0.116658    0.009105
C      1.122949    0.001266    0.612198
C     -0.138430   -0.138155    1.344215
C     -1.236924   -0.618995    0.391753
C     -2.655442   -0.299552    0.838174
C     -2.027232    0.475161   -0.310464
H      3.285154   -0.111235   -1.761708
H      4.208484   -0.337655   -0.219548
H      3.717251    1.324933   -0.745508
H     -0.003705   -0.891890    2.147612
H     -0.387433    0.836645    1.817182
H     -1.123106   -1.574543   -0.164429
H     -3.418468   -1.039046    0.515411
H     -2.756963    0.288764    1.775426
H     -1.750799    1.520545   -0.054703
H     -2.414561    0.190479   -1.311453
19

C      2.818335   -0.398217   -0.091245
C      1.961668    0.857923    0.040665
C      0.499657    0.542586   -0.119509
C     -0.180206   -0.125249    0.832340
C     -1.652887   -0.483682    0.775759
C     -2.589686    0.510826    0.104690
C     -2.246115   -0.802672   -0.589300
H      2.578539   -1.121001    0.717195
H      3.891661   -0.124974   -0.012621
H      2.645248   -0.880105   -1.077287
H      2.140519    1.335711    1.028330
H      2.263811    1.579336   -0.748713
H      0.006670    0.897424   -1.017470
H      0.352110   -0.441088    1.724850
H     -2.096891   -1.046061    1.624580
H     -2.128932    1.408393   -0.356540
H     -3.614905    0.534523    0.530887
H     -1.578235   -0.697099   -1.468754
H     -3.070359   -1.546574   -0.568247
19

C      2.965808    0.428069    0.330429
C      1.446572    0.386053    0.458339
C      0.883405   -0.892392   -0.110196
C     -0.429692   -1.171315   -0.106727
C     -1.456760   -0.240835    0.481697
C     -1.904439    0.871850   -0.453130
C     -2.825422   -0.304803   -0.178092
H      3.422659   -0.419878    0.884308
H      3.348725    1.378881    0.757456
H      3.264044    0.372839   -0.738455
H      1.173992    0.465599    1.532850
H      1.016718    1.254924   -0.084896
H      1.560209   -1.626270   -0.540461
H     -0.759698   -2.121875   -0.516322
H     -1.446225    0.006504    1.564546
H     -1.454167    0.865213   -1.469458
H     -2.203195    1.809807    0.060679
H     -2.928335   -1.001328   -1.038106
H     -3.674197   -0.061043    0.495152
17

C      3.363921   -0.741424    0.271274
C      2.364091    0.134176    0.227435
C      0.981422   -0.301368   -0.024806
C     -0.019416    0.579054   -0.065757
C     -1.421900    0.130405   -0.346219
C     -2.122333   -0.509268    0.842920
C     -2.499528    0.896018    0.404927
H      3.189756   -1.800065    0.122467
H      4.373764   -0.400157    0.458466
H      2.580030    1.185032    0.381730
H      0.773294   -1.355046   -0.177049
H      0.177331    1.637106    0.065308
H     -1.699250   -0.276471   -1.341887
H     -2.874687   -1.280713    0.574567
H     -1.545086   -0.543899    1.792412
H     -2.146913    1.691038    1.097148
H     -3.474496    0.955582   -0.123262
17

C      2.998062   -0.847343   -0.037732
C      1.701384   -0.558287   -0.097281
C      1.216517    0.813978    0.150448
C     -0.076216    1.156376    0.109732
C     -1.175968    0.184120   -0.212879
C     -1.610941   -0.682204    0.959207
C     -2.496058    0.459997    0.489984
H      3.733099   -0.086268    0.193812
H      3.335756   -1.858947   -0.222199
H      1.005686   -1.353966   -0.332514
H      1.939836    1.588913    0.377256
H     -0.340073    2.192597    0.284521
H     -1.241765   -0.286662   -1.216867
H     -1.982215   -1.688729    0.672688
H     -1.097842   -0.488278    1.926096
H     -2.513966    1.326124    1.186335
H     -3.395296    0.128580   -0.070932
15

C      3.823100    0.368018    0.254893
C      2.703696   -0.042248    0.076300
C      1.368646   -0.532542   -0.136437
C      0.365764    0.309894   -0.379396
C     -1.021133   -0.203124   -0.624257
C     -1.767047   -0.613093    0.636435
C     -2.133450    0.677367   -0.077291
H      4.805752    0.728314    0.411688
H      1.190970   -1.600082   -0.092892
H      0.551771    1.376623   -0.441098
H     -1.254590   -0.795996   -1.534070
H     -1.229844   -0.457821    1.597265
H     -2.503183   -1.431679    0.490911
H     -1.814597    1.594645    0.463493
H     -3.085853    0.621723   -0.645541
15

C      2.398356    0.475910   -1.771776
C      2.057498   -0.060711   -0.747537
C      1.648968   -0.701575    0.477353
C      0.364743   -0.877514    0.800859
C     -0.765102   -0.446882   -0.092921
C     -1.094483    1.036035   -0.015037
C     -2.014860    0.018425    0.637633
H      2.696908    0.947187   -2.671031
H      2.416933   -1.050372    1.155510
H      0.128793   -1.385091    1.728412
H     -0.918222   -0.923925   -1.084341
H     -0.496740    1.632317    0.708111
H     -1.494675    1.467826   -0.956577
H     -1.965969    0.018556    1.748046
H     -2.962149   -0.150186    0.083295
17

C      3.090761   -0.560735    0.065750
C      2.211477    0.603395    0.504586
C      0.806966    0.340048    0.174583
C     -0.347955    0.123653   -0.095702
C     -1.754080   -0.140739   -0.425165
C     -2.571890   -0.684344    0.734162
C     -2.741479    0.761314    0.295746
H      4.148755   -0.344023    0.323866
H      2.783132   -1.494596    0.583774
H      3.016659   -0.708617   -1.033210
H      2.305532    0.748899    1.601397
H      2.537580    1.531743   -0.010021
H     -2.044573   -0.483371   -1.440554
H     -3.412457   -1.345463    0.434878
H     -2.038252   -0.800402    1.702765
H     -2.308044    1.499737    1.005173
H     -3.682131    0.953502   -0.262353
15

C      3.216140    0.706981    0.239402
C      2.625675   -0.417236   -0.150323
C      1.192628   -0.510159   -0.218893
C     -0.009240   -0.586998   -0.275696
C     -1.472967   -0.679290   -0.344501
C     -2.181321   -0.285713    0.940699
C     -2.184579    0.659762   -0.249650
H      2.634324    1.578819    0.514199
H      4.295920    0.762524    0.286340
H      3.225364   -1.276649   -0.420497
H     -1.964362   -1.459544   -0.962998
H     -1.532182    0.049486    1.778980
H     -3.151370   -0.799746    1.107998
H     -1.537464    1.553938   -0.114834
H     -3.156565    0.703826   -0.784917
13

C      3.753128   -1.462888    1.064703
C      2.718549   -1.051637    0.602947
C      1.506831   -0.569942    0.062277
C      0.471785   -0.158469   -0.398807
C     -0.788750    0.342710   -0.961110
C     -2.022651   -0.046230   -0.164427
C     -1.488913    1.375402   -0.094037
H      4.661567   -1.823982    1.470179
H     -0.919320    0.446095   -2.058869
H     -2.948311   -0.148368   -0.769352
H     -1.846709   -0.638279    0.760195
H     -2.099697    2.112210   -0.657356
H     -0.997511    1.623378    0.872106
21

C      1.671000   -0.918864    1.573231
C      0.831536   -1.116102    0.315849
C     -0.615026   -0.637019    0.553967
C     -1.444474   -0.152302   -0.644915
C     -0.793757   -0.142330   -2.037625
C     -0.987870    0.848877    0.428555
C      0.069710    1.900274    0.058847
H      1.736848    0.159526    1.829468
H      1.221927   -1.469873    2.427059
H      2.697235   -1.306380    1.400923
H      1.342744   -0.636927   -0.538971
H      0.793936   -2.202555    0.088056
H     -1.210299   -1.187137    1.314371
H     -2.513194   -0.450084   -0.584725
H     -0.592399   -1.187066   -2.353559
H     -1.510975    0.302427   -2.757923
H      0.144188    0.438775   -2.107170
H     -1.817300    1.179121    1.089692
H      0.293251    2.504737    0.962019
H      1.029235    1.492465   -0.303875
H     -0.346317    2.580435   -0.713275
21

C      2.744871    0.337779   -0.151220
C      1.680780   -0.746076   -0.026785
C      0.298603   -0.180916   -0.375017
C     -0.875810   -0.951824    0.230574
C     -2.136801   -1.030852   -0.637538
C     -0.475616    0.414575    0.802645
C     -1.350868    1.627740    0.468939
H      2.533579    1.166159    0.558294
H      3.741679   -0.089696    0.086610
H      2.767319    0.739070   -1.186982
H      1.710670   -1.165042    1.003566
H      1.916400   -1.567483   -0.736412
H      0.133536    0.270395   -1.377770
H     -0.628285   -1.812818    0.888436
H     -3.032044   -0.859131   -0.004481
H     -2.136431   -0.302775   -1.475069
H     -2.206766   -2.048791   -1.073505
H      0.014700    0.370160    1.799090
H     -2.328272    1.531005    0.985649
H     -1.523824    1.754596   -0.619931
H     -0.847420    2.543924    0.840907
21

C      1.668744   -1.604063    1.255943
C      0.590167   -0.529224    1.317548
C     -0.272111   -0.567971    0.044148
C      0.068552    0.483858   -1.012090
C     -0.093247    0.013929   -2.457040
C     -1.235142    0.598119   -0.220172
C     -1.292739    1.736622    0.804746
H      2.333861   -1.429374    0.383281
H      2.280050   -1.572568    2.182428
H      1.206565   -2.610650    1.169295
H      1.087693    0.452626    1.464708
H     -0.061107   -0.724294    2.195994
H     -0.641782   -1.550035   -0.324329
H      0.881606    1.200025   -0.764256
H     -0.938974   -0.696802   -2.581167
H     -0.271354    0.894894   -3.107863
H      0.842058   -0.486480   -2.783077
H     -2.170989    0.306829   -0.744358
H     -1.694338    1.351487    1.765063
H     -1.981545    2.520797    0.428168
H     -0.305969    2.212275    0.983031
19

C      2.278219   -0.593230   -0.799730
C      1.104844   -1.052355   -0.359533
C      0.529327   -0.572461    0.948209
C     -0.991537   -0.386789    1.050045
C     -1.876451   -0.695358   -0.168818
C     -0.073738    0.840982    0.999131
C     -0.093804    1.712660   -0.267599
H      2.702060   -0.979526   -1.720853
H      2.819400    0.170272   -0.248913
H      0.608856   -1.846912   -0.908243
H      1.031076   -0.887040    1.887812
H     -1.414149   -0.591496    2.056783
H     -1.374369   -0.568001   -1.146675
H     -2.223537   -1.746909   -0.099059
H     -2.766307   -0.032858   -0.143975
H      0.026686    1.358124    1.977172
H      0.733416    2.449279   -0.203072
H      0.032418    1.151396   -1.213233
H     -1.052410    2.270223   -0.309838
19

C      2.716168   -0.120246    0.133661
C      1.557621   -0.639398   -0.276194
C      0.322844   -0.530550    0.576635
C     -0.990017   -0.553879   -0.206549
C     -2.153354   -1.241766    0.507090
C     -0.517282    0.746252    0.441591
C     -0.045289    1.823969   -0.541357
H      3.603141   -0.215393   -0.484057
H      2.786961    0.403859    1.082115
H      1.516400   -1.168432   -1.223944
H      0.313026   -1.009594    1.579491
H     -0.916440   -0.620744   -1.314241
H     -3.109569   -0.824470    0.129034
H     -2.125745   -2.328278    0.283106
H     -2.116653   -1.104776    1.609715
H     -1.040623    1.060656    1.370197
H      0.777779    2.406000   -0.077299
H      0.310221    1.404123   -1.506505
H     -0.889190    2.512668   -0.752876
19

C      2.542608   -1.048091    0.493473
C      1.867353   -0.692630   -0.609067
C      0.460155   -0.128579   -0.638696
C     -0.518059   -0.650403    0.417755
C     -1.969788   -0.813655   -0.047739
C      0.050728    0.774250    0.528585
C     -0.867273    1.947915    0.167144
H      3.549261   -1.442749    0.401147
H      2.122486   -0.957923    1.488082
H      2.362984   -0.815863   -1.566930
H      0.029529    0.120690   -1.632473
H     -0.129144   -1.364093    1.173491
H     -2.183833   -0.291531   -1.003298
H     -2.177050   -1.893277   -0.198263
H     -2.654520   -0.432674    0.738188
H      0.781939    0.917940    1.351041
H     -0.270156    2.883141    0.173430
H     -1.329561    1.848292   -0.836807
H     -1.667658    2.039240    0.930547
17

C      2.251778   -1.547965    0.098777
C      1.317352   -0.979600   -0.409069
C      0.178548   -0.288456   -1.039527
C     -0.281509    1.037495   -0.416940
C      0.448906    1.592856    0.817601
C     -1.138332   -0.224438   -0.252666
C     -1.226253   -0.874016    1.138852
H      3.071450   -2.046428    0.545346
H      0.066056   -0.355632   -2.141961
H     -0.701197    1.769906   -1.139125
H     -0.289262    2.087511    1.482388
H      1.000043    0.834143    1.405764
H      1.180963    2.356417    0.482732
H     -2.055609   -0.224506   -0.879368
H     -1.693473   -1.874915    1.033998
H     -1.878058   -0.252726    1.787451
H     -0.251403   -1.009646    1.645419
17

C      2.286466   -1.964557    0.311607
C      1.549261   -1.085203   -0.058258
C      0.651768   -0.010929   -0.512296
C      0.053768    0.809999    0.629172
C     -0.153467    2.291751    0.316892
C     -0.836341   -0.144121   -0.165636
C     -1.293442   -1.394409    0.595719
H      2.932984   -2.736664    0.636659
H      0.892806    0.536740   -1.448271
H      0.324052    0.505599    1.664577
H     -0.971508    2.686612    0.954302
H      0.778958    2.846285    0.550291
H     -0.415513    2.469134   -0.748794
H     -1.527693    0.314562   -0.905077
H     -0.623118   -1.655155    1.442404
H     -2.310519   -1.216386    1.002075
H     -1.338461   -2.253259   -0.105694
17

C      2.266020   -0.059377   -2.288565
C      1.567296   -0.249345   -1.324694
C      0.717182   -0.481979   -0.150633
C      0.285895    0.799966    0.560239
C      0.144769    0.695359    2.083075
C     -0.712310    0.032204   -0.314660
C     -1.796884   -0.797980    0.381316
H      2.879228    0.107622   -3.134726
H      0.874521   -1.391445    0.467945
H      0.632307    1.761359    0.121380
H     -0.779173    1.219050    2.405275
H      1.013992    1.195982    2.557451
H      0.117088   -0.352795    2.446969
H     -0.960191    0.536481   -1.274418
H     -1.388149   -1.510686    1.127476
H     -2.518259   -0.118649    0.881139
H     -2.343329   -1.385767   -0.384895
19

C     -0.170800    1.727836   -0.340988
C      1.113815    1.353286   -0.242683
C      1.578876   -0.066732   -0.425136
C      0.999333   -1.001616    0.645554
C     -0.443620   -1.431325    0.343616
C     -1.458843   -0.284897    0.457441
C     -1.291867    0.770278   -0.644820
H     -0.416208    2.776525   -0.199802
H      1.859116    2.113118   -0.025683
H      1.324299   -0.425913   -1.445860
H      2.686871   -0.079715   -0.339371
H      1.626160   -1.919301    0.677626
H      1.059589   -0.528998    1.650931
H     -0.728594   -2.216040    1.077707
H     -0.501604   -1.895085   -0.665597
H     -2.476300   -0.723166    0.363683
H     -1.397476    0.187395    1.462904
H     -1.128496    0.289238   -1.633560
H     -2.234250    1.355113   -0.715961
17

C      1.606266    0.794579    0.125191
C      0.548194    1.562843    0.410419
C     -0.882532    1.220323    0.149865
C     -1.232750   -0.189367    0.613401
C     -0.849271   -1.212035   -0.450044
C      0.626045   -1.460844   -0.580144
C      1.634220   -0.592522   -0.399569
H      2.579196    1.225194    0.329788
H      0.741942    2.537824    0.842504
H     -1.105127    1.358267   -0.930548
H     -1.517563    1.944404    0.705082
H     -2.333460   -0.244304    0.761844
H     -0.751917   -0.428882    1.588092
H     -1.332726   -2.177593   -0.186490
H     -1.255023   -0.915538   -1.441446
H      0.896198   -2.447103   -0.939678
H      2.628308   -0.975246   -0.598267
17

C      0.700642    1.482578   -0.244845
C     -0.637639    1.430274   -0.413652
C     -1.554458    0.234475   -0.233315
C     -1.005819   -0.946895    0.573118
C      0.165966   -1.578415   -0.123977
C      1.334485   -0.938966   -0.248779
C      1.563046    0.410527    0.368834
H      1.200205    2.409083   -0.514508
H     -1.107757    2.312522   -0.838893
H     -1.855949   -0.125234   -1.240994
H     -2.478014    0.591931    0.270301
H     -0.734915   -0.628356    1.602351
H     -1.809036   -1.709011    0.667865
H      0.057444   -2.573279   -0.545812
H      2.152438   -1.426388   -0.771097
H      1.380010    0.365499    1.463254
H      2.629353    0.689655    0.230150
